Fe                                      
           1
    10.666890    0.000000    0.000000
     0.000000   10.666890    0.000000
     0.000000    0.000000   10.666890
   Fe   O 
  86  22
Direct configuration=     1
   0.08001207  0.92594373  0.80552906
   0.33799729  0.07038603  0.30296272
   0.91435178  0.95645028  0.09361304
   0.98654621  0.32961341  0.88267620
   0.18092246  0.30610515  0.83052791
   0.82305713  0.45559952  0.87341670
   0.11093299  0.82838108  0.03656361
   0.45577295  0.84470637  0.97613830
   0.67235810  0.91926887  0.77196352
   0.17670942  0.70789611  0.27634952
   0.47792749  0.10759462  0.67974170
   0.71860776  0.09401897  0.09043404
   0.48031619  0.19894271  0.44091670
   0.13231973  0.13239191  0.44014140
   0.70612989  0.19470342  0.38491069
   0.07515124  0.60925536  0.14886719
   0.25873895  0.57105772  0.43654242
   0.38901029  0.86573124  0.36990725
   0.41857092  0.29630098  0.80337380
   0.11749910  0.17590225  0.01870461
   0.61741519  0.48393861  0.96754442
   0.77826713  0.32350572  0.60076554
   0.13969114  0.26577474  0.62349850
   0.47644908  0.36103400  0.31208346
   0.32027892  0.39664325  0.64372558
   0.17320231  0.64794143  0.66543200
   0.68874620  0.37994673  0.41914184
   0.97445646  0.08020144  0.29993559
   0.17302981  0.95183225  0.31450029
   0.74223320  0.28645462  0.00880574
   0.98906147  0.33094744  0.11902907
   0.32911936  0.25457373  0.19389344
   0.58825205  0.68922806  0.09855075
   0.34006444  0.84404544  0.15132433
   0.06762515  0.44479318  0.29818625
   0.71513721  0.68471503  0.93542728
   0.91582550  0.91945824  0.47927652
   0.33059120  0.98584872  0.54727854
   0.78247173  0.08500134  0.50020296
   0.98329503  0.60991254  0.76990950
   0.26000737  0.32675784  0.40367998
   0.66611261  0.55063659  0.30769043
   0.89025666  0.96290483  0.73222841
   0.44166762  0.90701975  0.74072855
   0.81082395  0.70819610  0.52030441
   0.81345265  0.54848038  0.66108115
   0.32452664  0.19322501  0.57493796
   0.62002795  0.16786055  0.89526375
   0.11297388  0.66599636  0.89628841
   0.43401778  0.57285394  0.69217737
   0.58972577  0.67268247  0.75360203
   0.27820573  0.91444366  0.92374440
   0.38686065  0.75330859  0.56952307
   0.80420815  0.75066490  0.76240965
   0.01269255  0.69404390  0.45451954
   0.56556971  0.97603424  0.40565244
   0.96451261  0.84808786  0.27898009
   0.23022830  0.01375846  0.10693745
   0.57246395  0.10877022  0.22629932
   0.86477782  0.42546609  0.26148108
   0.21465863  0.45016776  0.19527810
   0.45472297  0.46622305  0.10700963
   0.77714309  0.98960989  0.29018298
   0.26920686  0.06412084  0.75564761
   0.66617729  0.14362105  0.66157895
   0.08805003  0.00240745  0.60876600
   0.96049082  0.39101181  0.68064355
   0.65221634  0.34925737  0.20967967
   0.88088467  0.49168220  0.47548441
   0.90595571  0.63559762  0.29462289
   0.44990433  0.64888453  0.24286929
   0.00411084  0.78909034  0.64230529
   0.31545745  0.20023924  0.97406928
   0.45601201  0.04898054  0.89156539
   0.82873826  0.21176181  0.78629947
   0.22845365  0.51722198  0.82462366
   0.30278647  0.40149565  0.97707578
   0.54843351  0.36484298  0.62388943
   0.32738689  0.72206987  0.84870941
   0.60652167  0.76820328  0.60495514
   0.87429512  0.76994231  0.12508894
   0.91900731  0.16124100  0.98242786
   0.43504714  0.54803508  0.87863941
   0.04948021  0.15064091  0.82589676
   0.94177215  0.62306539  0.00203246
   0.50457818  0.24322647  0.05547915
   0.74847495  0.55349965  0.09401522
   0.28832865  0.65738560  0.02783004
   0.43120815  0.05005208  0.10234754
   0.75742132  0.01526218  0.89152414
   0.18185900  0.82078187  0.46411934
   0.83026073  0.22845459  0.19563621
   0.05193079  0.00673110  0.98981239
   0.12984759  0.44572879  0.53765530
   0.74912556  0.78443294  0.31901519
   0.56076232  0.89373190  0.19908239
   0.10898397  0.22126974  0.23387510
   0.70895734  0.87223267  0.00342837
   0.72733008  0.88998198  0.52679834
   0.96161298  0.27613484  0.40118910
   0.65243571  0.32557474  0.78446669
   0.94580050  0.14342606  0.58336872
   0.09045092  0.47841779  0.98097007
   0.45679199  0.51855039  0.45411080
   0.64230717  0.53770217  0.54063836
   0.23525601  0.85894857  0.68619063
   0.55574867  0.73547397  0.40230188
   0.93158736  0.82096655  0.91440053