KMC simulation
1.000000
  17.2117729188    0.0000000000    0.0000000000
   0.0000000000   17.2117729188    0.0000000000
   0.0000000000    0.0000000000   17.2117729188
Fe 
243 
Direct configuration=     1
   0.1250000000    0.1250000000    0.1250000000
   0.6250000000    0.1250000000    0.1250000000
   0.1250000000    0.6250000000    0.1250000000
   0.6250000000    0.6250000000    0.1250000000
   0.1250000000    0.1250000000    0.6250000000
   0.6250000000    0.1250000000    0.6250000000
   0.1250000000    0.6250000000    0.6250000000
   0.6250000000    0.6250000000    0.6250000000
   0.3750000000    0.3750000000    0.3750000000
   0.8750000000    0.3750000000    0.3750000000
   0.3750000000    0.8750000000    0.3750000000
   0.8750000000    0.8750000000    0.3750000000
   0.3750000000    0.3750000000    0.8750000000
   0.8750000000    0.3750000000    0.8750000000
   0.8750000000    0.8750000000    0.8750000000
   0.3750000000    0.3750000000    0.1250000000
   0.8750000000    0.3750000000    0.1250000000
   0.3750000000    0.8750000000    0.1250000000
   0.8750000000    0.8750000000    0.1250000000
   0.3750000000    0.3750000000    0.6250000000
   0.8750000000    0.3750000000    0.6250000000
   0.3750000000    0.8750000000    0.6250000000
   0.8750000000    0.8750000000    0.6250000000
   0.1250000000    0.1250000000    0.3750000000
   0.6250000000    0.1250000000    0.3750000000
   0.1250000000    0.6250000000    0.3750000000
   0.6250000000    0.6250000000    0.3750000000
   0.1250000000    0.1250000000    0.8750000000
   0.6250000000    0.1250000000    0.8750000000
   0.1250000000    0.6250000000    0.8750000000
   0.6250000000    0.6250000000    0.8750000000
   0.8750000000    0.1250000000    0.3750000000
   0.8750000000    0.6250000000    0.3750000000
   0.3750000000    0.1250000000    0.8750000000
   0.8750000000    0.1250000000    0.8750000000
   0.3750000000    0.6250000000    0.8750000000
   0.8750000000    0.6250000000    0.8750000000
   0.1250000000    0.3750000000    0.1250000000
   0.6250000000    0.3750000000    0.1250000000
   0.1250000000    0.8750000000    0.1250000000
   0.6250000000    0.8750000000    0.1250000000
   0.1250000000    0.3750000000    0.6250000000
   0.6250000000    0.3750000000    0.6250000000
   0.1250000000    0.8750000000    0.6250000000
   0.6250000000    0.8750000000    0.6250000000
   0.1250000000    0.3750000000    0.3750000000
   0.6250000000    0.3750000000    0.3750000000
   0.1250000000    0.8750000000    0.3750000000
   0.6250000000    0.8750000000    0.3750000000
   0.1250000000    0.3750000000    0.8750000000
   0.6250000000    0.3750000000    0.8750000000
   0.1250000000    0.8750000000    0.8750000000
   0.6250000000    0.8750000000    0.8750000000
   0.3750000000    0.1250000000    0.1250000000
   0.8750000000    0.1250000000    0.1250000000
   0.3750000000    0.6250000000    0.1250000000
   0.8750000000    0.6250000000    0.1250000000
   0.3750000000    0.1250000000    0.6250000000
   0.8750000000    0.1250000000    0.6250000000
   0.3750000000    0.6250000000    0.6250000000
   0.1250000000    0.2500000000    0.2500000000
   0.6250000000    0.2500000000    0.2500000000
   0.1250000000    0.7500000000    0.2500000000
   0.6250000000    0.7500000000    0.2500000000
   0.1250000000    0.2500000000    0.7500000000
   0.6250000000    0.2500000000    0.7500000000
   0.1250000000    0.7500000000    0.7500000000
   0.6250000000    0.7500000000    0.7500000000
   0.8750000000    0.0000000000    0.0000000000
   0.3750000000    0.5000000000    0.0000000000
   0.8750000000    0.5000000000    0.0000000000
   0.3750000000    0.0000000000    0.5000000000
   0.8750000000    0.0000000000    0.5000000000
   0.8750000000    0.5000000000    0.5000000000
   0.3750000000    0.0000000000    0.2500000000
   0.8750000000    0.0000000000    0.2500000000
   0.3750000000    0.5000000000    0.2500000000
   0.8750000000    0.5000000000    0.2500000000
   0.3750000000    0.0000000000    0.7500000000
   0.8750000000    0.0000000000    0.7500000000
   0.3750000000    0.5000000000    0.7500000000
   0.8750000000    0.5000000000    0.7500000000
   0.1250000000    0.2500000000    0.0000000000
   0.6250000000    0.2500000000    0.0000000000
   0.1250000000    0.7500000000    0.0000000000
   0.6250000000    0.7500000000    0.0000000000
   0.1250000000    0.2500000000    0.5000000000
   0.6250000000    0.2500000000    0.5000000000
   0.1250000000    0.7500000000    0.5000000000
   0.6250000000    0.7500000000    0.5000000000
   0.3750000000    0.2500000000    0.0000000000
   0.8750000000    0.2500000000    0.0000000000
   0.3750000000    0.7500000000    0.0000000000
   0.8750000000    0.7500000000    0.0000000000
   0.3750000000    0.2500000000    0.5000000000
   0.8750000000    0.2500000000    0.5000000000
   0.3750000000    0.7500000000    0.5000000000
   0.8750000000    0.7500000000    0.5000000000
   0.1250000000    0.0000000000    0.2500000000
   0.6250000000    0.0000000000    0.2500000000
   0.1250000000    0.5000000000    0.2500000000
   0.6250000000    0.5000000000    0.2500000000
   0.1250000000    0.0000000000    0.7500000000
   0.6250000000    0.0000000000    0.7500000000
   0.6250000000    0.5000000000    0.7500000000
   0.1250000000    0.0000000000    0.0000000000
   0.6250000000    0.0000000000    0.0000000000
   0.1250000000    0.5000000000    0.0000000000
   0.6250000000    0.5000000000    0.0000000000
   0.6250000000    0.0000000000    0.5000000000
   0.1250000000    0.5000000000    0.5000000000
   0.6250000000    0.5000000000    0.5000000000
   0.3750000000    0.2500000000    0.2500000000
   0.8750000000    0.2500000000    0.2500000000
   0.3750000000    0.7500000000    0.2500000000
   0.8750000000    0.7500000000    0.2500000000
   0.3750000000    0.2500000000    0.7500000000
   0.8750000000    0.2500000000    0.7500000000
   0.3750000000    0.7500000000    0.7500000000
   0.8750000000    0.7500000000    0.7500000000
   0.7500000000    0.1250000000    0.2500000000
   0.2500000000    0.6250000000    0.2500000000
   0.7500000000    0.6250000000    0.2500000000
   0.2500000000    0.1250000000    0.7500000000
   0.7500000000    0.1250000000    0.7500000000
   0.7500000000    0.6250000000    0.7500000000
   0.0000000000    0.3750000000    0.0000000000
   0.5000000000    0.3750000000    0.0000000000
   0.0000000000    0.8750000000    0.0000000000
   0.5000000000    0.8750000000    0.0000000000
   0.0000000000    0.3750000000    0.5000000000
   0.5000000000    0.3750000000    0.5000000000
   0.5000000000    0.8750000000    0.5000000000
   0.0000000000    0.3750000000    0.2500000000
   0.5000000000    0.3750000000    0.2500000000
   0.0000000000    0.8750000000    0.2500000000
   0.5000000000    0.8750000000    0.2500000000
   0.0000000000    0.3750000000    0.7500000000
   0.5000000000    0.3750000000    0.7500000000
   0.0000000000    0.8750000000    0.7500000000
   0.5000000000    0.8750000000    0.7500000000
   0.2500000000    0.1250000000    0.0000000000
   0.7500000000    0.1250000000    0.0000000000
   0.2500000000    0.6250000000    0.0000000000
   0.7500000000    0.6250000000    0.0000000000
   0.2500000000    0.1250000000    0.5000000000
   0.7500000000    0.1250000000    0.5000000000
   0.2500000000    0.6250000000    0.5000000000
   0.7500000000    0.6250000000    0.5000000000
   0.0000000000    0.1250000000    0.0000000000
   0.5000000000    0.1250000000    0.0000000000
   0.0000000000    0.6250000000    0.0000000000
   0.5000000000    0.6250000000    0.0000000000
   0.0000000000    0.1250000000    0.5000000000
   0.5000000000    0.1250000000    0.5000000000
   0.0000000000    0.6250000000    0.5000000000
   0.5000000000    0.6250000000    0.5000000000
   0.2500000000    0.3750000000    0.2500000000
   0.7500000000    0.3750000000    0.2500000000
   0.2500000000    0.8750000000    0.2500000000
   0.7500000000    0.8750000000    0.2500000000
   0.2500000000    0.3750000000    0.7500000000
   0.7500000000    0.3750000000    0.7500000000
   0.2500000000    0.8750000000    0.7500000000
   0.7500000000    0.8750000000    0.7500000000
   0.2500000000    0.3750000000    0.0000000000
   0.7500000000    0.3750000000    0.0000000000
   0.2500000000    0.8750000000    0.0000000000
   0.7500000000    0.8750000000    0.0000000000
   0.2500000000    0.3750000000    0.5000000000
   0.7500000000    0.3750000000    0.5000000000
   0.2500000000    0.8750000000    0.5000000000
   0.7500000000    0.8750000000    0.5000000000
   0.0000000000    0.1250000000    0.2500000000
   0.5000000000    0.1250000000    0.2500000000
   0.0000000000    0.6250000000    0.2500000000
   0.5000000000    0.6250000000    0.2500000000
   0.5000000000    0.1250000000    0.7500000000
   0.0000000000    0.6250000000    0.7500000000
   0.5000000000    0.6250000000    0.7500000000
   0.2500000000    0.2500000000    0.1250000000
   0.7500000000    0.2500000000    0.1250000000
   0.2500000000    0.7500000000    0.1250000000
   0.7500000000    0.7500000000    0.1250000000
   0.2500000000    0.2500000000    0.6250000000
   0.7500000000    0.2500000000    0.6250000000
   0.2500000000    0.7500000000    0.6250000000
   0.7500000000    0.7500000000    0.6250000000
   0.0000000000    0.0000000000    0.3750000000
   0.5000000000    0.0000000000    0.3750000000
   0.0000000000    0.5000000000    0.3750000000
   0.5000000000    0.5000000000    0.3750000000
   0.0000000000    0.0000000000    0.8750000000
   0.5000000000    0.0000000000    0.8750000000
   0.0000000000    0.5000000000    0.8750000000
   0.5000000000    0.5000000000    0.8750000000
   0.0000000000    0.0000000000    0.1250000000
   0.5000000000    0.0000000000    0.1250000000
   0.0000000000    0.5000000000    0.1250000000
   0.5000000000    0.5000000000    0.1250000000
   0.0000000000    0.0000000000    0.6250000000
   0.5000000000    0.0000000000    0.6250000000
   0.0000000000    0.5000000000    0.6250000000
   0.5000000000    0.5000000000    0.6250000000
   0.2500000000    0.2500000000    0.3750000000
   0.7500000000    0.2500000000    0.3750000000
   0.2500000000    0.7500000000    0.3750000000
   0.7500000000    0.7500000000    0.3750000000
   0.2500000000    0.2500000000    0.8750000000
   0.7500000000    0.2500000000    0.8750000000
   0.2500000000    0.7500000000    0.8750000000
   0.7500000000    0.7500000000    0.8750000000
   0.0000000000    0.2500000000    0.3750000000
   0.5000000000    0.2500000000    0.3750000000
   0.0000000000    0.7500000000    0.3750000000
   0.5000000000    0.7500000000    0.3750000000
   0.0000000000    0.2500000000    0.8750000000
   0.5000000000    0.2500000000    0.8750000000
   0.0000000000    0.7500000000    0.8750000000
   0.5000000000    0.7500000000    0.8750000000
   0.2500000000    0.0000000000    0.1250000000
   0.7500000000    0.0000000000    0.1250000000
   0.2500000000    0.5000000000    0.1250000000
   0.7500000000    0.5000000000    0.1250000000
   0.2500000000    0.0000000000    0.6250000000
   0.7500000000    0.0000000000    0.6250000000
   0.7500000000    0.5000000000    0.6250000000
   0.2500000000    0.0000000000    0.3750000000
   0.7500000000    0.0000000000    0.3750000000
   0.2500000000    0.5000000000    0.3750000000
   0.7500000000    0.5000000000    0.3750000000
   0.2500000000    0.0000000000    0.8750000000
   0.7500000000    0.0000000000    0.8750000000
   0.2500000000    0.5000000000    0.8750000000
   0.7500000000    0.5000000000    0.8750000000
   0.0000000000    0.2500000000    0.1250000000
   0.5000000000    0.2500000000    0.1250000000
   0.0000000000    0.7500000000    0.1250000000
   0.5000000000    0.7500000000    0.1250000000
   0.0000000000    0.2500000000    0.6250000000
   0.5000000000    0.2500000000    0.6250000000
   0.0000000000    0.7500000000    0.6250000000
   0.5000000000    0.7500000000    0.6250000000
Direct configuration=     2
   0.1250000000    0.1250000000    0.1250000000
   0.6250000000    0.1250000000    0.1250000000
   0.1250000000    0.6250000000    0.1250000000
   0.6250000000    0.6250000000    0.1250000000
   0.1250000000    0.1250000000    0.6250000000
   0.6250000000    0.1250000000    0.6250000000
   0.1250000000    0.6250000000    0.6250000000
   0.6250000000    0.6250000000    0.6250000000
   0.3750000000    0.3750000000    0.3750000000
   0.8750000000    0.3750000000    0.3750000000
   0.3750000000    0.8750000000    0.3750000000
   0.0000000000    0.8750000000    0.5000000000
   0.3750000000    0.3750000000    0.8750000000
   0.8750000000    0.3750000000    0.8750000000
   0.8750000000    0.8750000000    0.8750000000
   0.3750000000    0.3750000000    0.1250000000
   0.8750000000    0.3750000000    0.1250000000
   0.3750000000    0.8750000000    0.1250000000
   0.8750000000    0.8750000000    0.1250000000
   0.3750000000    0.3750000000    0.6250000000
   0.8750000000    0.3750000000    0.6250000000
   0.3750000000    0.8750000000    0.6250000000
   0.8750000000    0.8750000000    0.6250000000
   0.1250000000    0.0000000000    0.5000000000
   0.6250000000    0.1250000000    0.3750000000
   0.1250000000    0.6250000000    0.3750000000
   0.6250000000    0.6250000000    0.3750000000
   0.1250000000    0.1250000000    0.8750000000
   0.6250000000    0.1250000000    0.8750000000
   0.1250000000    0.6250000000    0.8750000000
   0.6250000000    0.6250000000    0.8750000000
   0.8750000000    0.1250000000    0.3750000000
   0.8750000000    0.6250000000    0.3750000000
   0.3750000000    0.1250000000    0.8750000000
   0.0000000000    0.1250000000    0.7500000000
   0.3750000000    0.6250000000    0.8750000000
   0.8750000000    0.6250000000    0.8750000000
   0.1250000000    0.3750000000    0.1250000000
   0.6250000000    0.3750000000    0.1250000000
   0.1250000000    0.8750000000    0.1250000000
   0.6250000000    0.8750000000    0.1250000000
   0.1250000000    0.3750000000    0.6250000000
   0.6250000000    0.3750000000    0.6250000000
   0.1250000000    0.8750000000    0.6250000000
   0.6250000000    0.8750000000    0.6250000000
   0.1250000000    0.3750000000    0.3750000000
   0.6250000000    0.3750000000    0.3750000000
   0.1250000000    0.8750000000    0.3750000000
   0.6250000000    0.8750000000    0.3750000000
   0.1250000000    0.3750000000    0.8750000000
   0.6250000000    0.3750000000    0.8750000000
   0.1250000000    0.8750000000    0.8750000000
   0.6250000000    0.8750000000    0.8750000000
   0.3750000000    0.0000000000    0.0000000000
   0.8750000000    0.1250000000    0.1250000000
   0.3750000000    0.6250000000    0.1250000000
   0.8750000000    0.6250000000    0.1250000000
   0.3750000000    0.1250000000    0.6250000000
   0.8750000000    0.1250000000    0.6250000000
   0.2500000000    0.6250000000    0.7500000000
   0.1250000000    0.2500000000    0.2500000000
   0.6250000000    0.2500000000    0.2500000000
   0.1250000000    0.7500000000    0.2500000000
   0.6250000000    0.7500000000    0.2500000000
   0.1250000000    0.2500000000    0.7500000000
   0.6250000000    0.2500000000    0.7500000000
   0.1250000000    0.7500000000    0.7500000000
   0.6250000000    0.7500000000    0.7500000000
   0.8750000000    0.0000000000    0.0000000000
   0.3750000000    0.5000000000    0.0000000000
   0.8750000000    0.5000000000    0.0000000000
   0.3750000000    0.0000000000    0.5000000000
   0.8750000000    0.0000000000    0.5000000000
   0.8750000000    0.5000000000    0.5000000000
   0.2500000000    0.1250000000    0.2500000000
   0.8750000000    0.0000000000    0.2500000000
   0.3750000000    0.5000000000    0.2500000000
   0.8750000000    0.5000000000    0.2500000000
   0.3750000000    0.0000000000    0.7500000000
   0.8750000000    0.0000000000    0.7500000000
   0.3750000000    0.5000000000    0.7500000000
   0.8750000000    0.5000000000    0.7500000000
   0.1250000000    0.2500000000    0.0000000000
   0.6250000000    0.2500000000    0.0000000000
   0.1250000000    0.7500000000    0.0000000000
   0.6250000000    0.7500000000    0.0000000000
   0.1250000000    0.2500000000    0.5000000000
   0.6250000000    0.2500000000    0.5000000000
   0.1250000000    0.7500000000    0.5000000000
   0.6250000000    0.7500000000    0.5000000000
   0.3750000000    0.2500000000    0.0000000000
   0.8750000000    0.2500000000    0.0000000000
   0.3750000000    0.7500000000    0.0000000000
   0.8750000000    0.7500000000    0.0000000000
   0.3750000000    0.2500000000    0.5000000000
   0.8750000000    0.2500000000    0.5000000000
   0.3750000000    0.6250000000    0.6250000000
   0.8750000000    0.7500000000    0.5000000000
   0.1250000000    0.0000000000    0.2500000000
   0.6250000000    0.0000000000    0.2500000000
   0.1250000000    0.5000000000    0.2500000000
   0.6250000000    0.5000000000    0.2500000000
   0.1250000000    0.0000000000    0.7500000000
   0.6250000000    0.0000000000    0.7500000000
   0.6250000000    0.5000000000    0.7500000000
   0.1250000000    0.0000000000    0.0000000000
   0.6250000000    0.0000000000    0.0000000000
   0.1250000000    0.5000000000    0.0000000000
   0.6250000000    0.5000000000    0.0000000000
   0.6250000000    0.0000000000    0.5000000000
   0.1250000000    0.5000000000    0.5000000000
   0.6250000000    0.5000000000    0.5000000000
   0.3750000000    0.1250000000    0.3750000000
   0.8750000000    0.2500000000    0.2500000000
   0.3750000000    0.7500000000    0.2500000000
   0.8750000000    0.7500000000    0.2500000000
   0.3750000000    0.2500000000    0.7500000000
   0.8750000000    0.2500000000    0.7500000000
   0.3750000000    0.7500000000    0.7500000000
   0.8750000000    0.7500000000    0.7500000000
   0.7500000000    0.1250000000    0.2500000000
   0.2500000000    0.6250000000    0.2500000000
   0.7500000000    0.6250000000    0.2500000000
   0.2500000000    0.1250000000    0.7500000000
   0.7500000000    0.1250000000    0.7500000000
   0.7500000000    0.6250000000    0.7500000000
   0.0000000000    0.3750000000    0.0000000000
   0.5000000000    0.3750000000    0.0000000000
   0.0000000000    0.8750000000    0.0000000000
   0.5000000000    0.8750000000    0.0000000000
   0.0000000000    0.3750000000    0.5000000000
   0.5000000000    0.3750000000    0.5000000000
   0.5000000000    0.8750000000    0.5000000000
   0.0000000000    0.3750000000    0.2500000000
   0.5000000000    0.3750000000    0.2500000000
   0.0000000000    0.8750000000    0.2500000000
   0.5000000000    0.8750000000    0.2500000000
   0.0000000000    0.3750000000    0.7500000000
   0.5000000000    0.3750000000    0.7500000000
   0.0000000000    0.8750000000    0.7500000000
   0.5000000000    0.8750000000    0.7500000000
   0.2500000000    0.1250000000    0.0000000000
   0.7500000000    0.1250000000    0.0000000000
   0.2500000000    0.6250000000    0.0000000000
   0.7500000000    0.6250000000    0.0000000000
   0.2500000000    0.1250000000    0.5000000000
   0.7500000000    0.1250000000    0.5000000000
   0.2500000000    0.6250000000    0.5000000000
   0.7500000000    0.6250000000    0.5000000000
   0.0000000000    0.1250000000    0.0000000000
   0.5000000000    0.1250000000    0.0000000000
   0.0000000000    0.6250000000    0.0000000000
   0.5000000000    0.6250000000    0.0000000000
   0.0000000000    0.1250000000    0.5000000000
   0.5000000000    0.1250000000    0.5000000000
   0.0000000000    0.6250000000    0.5000000000
   0.5000000000    0.6250000000    0.5000000000
   0.2500000000    0.3750000000    0.2500000000
   0.7500000000    0.3750000000    0.2500000000
   0.2500000000    0.8750000000    0.2500000000
   0.7500000000    0.8750000000    0.2500000000
   0.2500000000    0.3750000000    0.7500000000
   0.7500000000    0.3750000000    0.7500000000
   0.2500000000    0.8750000000    0.7500000000
   0.7500000000    0.8750000000    0.7500000000
   0.2500000000    0.3750000000    0.0000000000
   0.7500000000    0.3750000000    0.0000000000
   0.2500000000    0.8750000000    0.0000000000
   0.7500000000    0.8750000000    0.0000000000
   0.2500000000    0.3750000000    0.5000000000
   0.7500000000    0.3750000000    0.5000000000
   0.2500000000    0.8750000000    0.5000000000
   0.7500000000    0.8750000000    0.5000000000
   0.0000000000    0.1250000000    0.2500000000
   0.5000000000    0.1250000000    0.2500000000
   0.0000000000    0.6250000000    0.2500000000
   0.5000000000    0.6250000000    0.2500000000
   0.5000000000    0.1250000000    0.7500000000
   0.1250000000    0.5000000000    0.7500000000
   0.5000000000    0.6250000000    0.7500000000
   0.2500000000    0.2500000000    0.1250000000
   0.7500000000    0.2500000000    0.1250000000
   0.2500000000    0.7500000000    0.1250000000
   0.7500000000    0.7500000000    0.1250000000
   0.2500000000    0.2500000000    0.6250000000
   0.7500000000    0.2500000000    0.6250000000
   0.3750000000    0.7500000000    0.5000000000
   0.7500000000    0.7500000000    0.6250000000
   0.0000000000    0.0000000000    0.3750000000
   0.5000000000    0.0000000000    0.3750000000
   0.0000000000    0.5000000000    0.3750000000
   0.5000000000    0.5000000000    0.3750000000
   0.0000000000    0.0000000000    0.8750000000
   0.5000000000    0.0000000000    0.8750000000
   0.0000000000    0.5000000000    0.8750000000
   0.5000000000    0.5000000000    0.8750000000
   0.0000000000    0.0000000000    0.1250000000
   0.5000000000    0.0000000000    0.1250000000
   0.0000000000    0.5000000000    0.1250000000
   0.5000000000    0.5000000000    0.1250000000
   0.0000000000    0.0000000000    0.6250000000
   0.5000000000    0.0000000000    0.6250000000
   0.0000000000    0.5000000000    0.6250000000
   0.5000000000    0.5000000000    0.6250000000
   0.2500000000    0.2500000000    0.3750000000
   0.7500000000    0.2500000000    0.3750000000
   0.2500000000    0.7500000000    0.3750000000
   0.7500000000    0.7500000000    0.3750000000
   0.2500000000    0.2500000000    0.8750000000
   0.7500000000    0.2500000000    0.8750000000
   0.2500000000    0.7500000000    0.8750000000
   0.7500000000    0.7500000000    0.8750000000
   0.0000000000    0.2500000000    0.3750000000
   0.5000000000    0.2500000000    0.3750000000
   0.0000000000    0.7500000000    0.3750000000
   0.5000000000    0.7500000000    0.3750000000
   0.0000000000    0.2500000000    0.8750000000
   0.5000000000    0.2500000000    0.8750000000
   0.0000000000    0.7500000000    0.8750000000
   0.5000000000    0.7500000000    0.8750000000
   0.2500000000    0.0000000000    0.1250000000
   0.7500000000    0.0000000000    0.1250000000
   0.2500000000    0.5000000000    0.1250000000
   0.7500000000    0.5000000000    0.1250000000
   0.2500000000    0.0000000000    0.6250000000
   0.7500000000    0.0000000000    0.6250000000
   0.7500000000    0.5000000000    0.6250000000
   0.2500000000    0.0000000000    0.3750000000
   0.7500000000    0.0000000000    0.3750000000
   0.2500000000    0.5000000000    0.3750000000
   0.7500000000    0.5000000000    0.3750000000
   0.2500000000    0.0000000000    0.8750000000
   0.7500000000    0.0000000000    0.8750000000
   0.2500000000    0.5000000000    0.8750000000
   0.7500000000    0.5000000000    0.8750000000
   0.0000000000    0.2500000000    0.1250000000
   0.5000000000    0.2500000000    0.1250000000
   0.0000000000    0.7500000000    0.1250000000
   0.5000000000    0.7500000000    0.1250000000
   0.0000000000    0.2500000000    0.6250000000
   0.5000000000    0.2500000000    0.6250000000
   0.0000000000    0.7500000000    0.6250000000
   0.5000000000    0.7500000000    0.6250000000
Direct configuration=     3
   0.1250000000    0.1250000000    0.1250000000
   0.6250000000    0.1250000000    0.1250000000
   0.1250000000    0.6250000000    0.1250000000
   0.6250000000    0.6250000000    0.1250000000
   0.1250000000    0.1250000000    0.6250000000
   0.6250000000    0.1250000000    0.6250000000
   0.1250000000    0.6250000000    0.6250000000
   0.6250000000    0.6250000000    0.6250000000
   0.3750000000    0.3750000000    0.3750000000
   0.8750000000    0.3750000000    0.3750000000
   0.3750000000    0.8750000000    0.3750000000
   0.0000000000    0.8750000000    0.5000000000
   0.3750000000    0.3750000000    0.8750000000
   0.8750000000    0.3750000000    0.8750000000
   0.8750000000    0.8750000000    0.8750000000
   0.3750000000    0.2500000000    0.2500000000
   0.8750000000    0.3750000000    0.1250000000
   0.3750000000    0.8750000000    0.1250000000
   0.8750000000    0.8750000000    0.1250000000
   0.3750000000    0.3750000000    0.6250000000
   0.8750000000    0.3750000000    0.6250000000
   0.3750000000    0.8750000000    0.6250000000
   0.8750000000    0.8750000000    0.6250000000
   0.1250000000    0.0000000000    0.5000000000
   0.6250000000    0.1250000000    0.3750000000
   0.1250000000    0.6250000000    0.3750000000
   0.6250000000    0.6250000000    0.3750000000
   0.1250000000    0.1250000000    0.8750000000
   0.6250000000    0.1250000000    0.8750000000
   0.1250000000    0.6250000000    0.8750000000
   0.6250000000    0.6250000000    0.8750000000
   0.8750000000    0.1250000000    0.3750000000
   0.8750000000    0.6250000000    0.3750000000
   0.3750000000    0.1250000000    0.8750000000
   0.0000000000    0.1250000000    0.7500000000
   0.3750000000    0.6250000000    0.8750000000
   0.8750000000    0.6250000000    0.8750000000
   0.1250000000    0.3750000000    0.1250000000
   0.6250000000    0.3750000000    0.1250000000
   0.1250000000    0.8750000000    0.1250000000
   0.6250000000    0.8750000000    0.1250000000
   0.1250000000    0.3750000000    0.6250000000
   0.6250000000    0.3750000000    0.6250000000
   0.1250000000    0.8750000000    0.6250000000
   0.6250000000    0.8750000000    0.6250000000
   0.1250000000    0.3750000000    0.3750000000
   0.6250000000    0.3750000000    0.3750000000
   0.1250000000    0.8750000000    0.3750000000
   0.6250000000    0.8750000000    0.3750000000
   0.1250000000    0.3750000000    0.8750000000
   0.6250000000    0.3750000000    0.8750000000
   0.1250000000    0.8750000000    0.8750000000
   0.6250000000    0.8750000000    0.8750000000
   0.3750000000    0.0000000000    0.0000000000
   0.8750000000    0.1250000000    0.1250000000
   0.3750000000    0.6250000000    0.1250000000
   0.8750000000    0.6250000000    0.1250000000
   0.3750000000    0.1250000000    0.6250000000
   0.8750000000    0.1250000000    0.6250000000
   0.2500000000    0.6250000000    0.7500000000
   0.1250000000    0.2500000000    0.2500000000
   0.6250000000    0.2500000000    0.2500000000
   0.1250000000    0.7500000000    0.2500000000
   0.6250000000    0.7500000000    0.2500000000
   0.1250000000    0.2500000000    0.7500000000
   0.6250000000    0.2500000000    0.7500000000
   0.1250000000    0.7500000000    0.7500000000
   0.6250000000    0.7500000000    0.7500000000
   0.8750000000    0.0000000000    0.0000000000
   0.3750000000    0.5000000000    0.0000000000
   0.8750000000    0.5000000000    0.0000000000
   0.3750000000    0.0000000000    0.5000000000
   0.8750000000    0.0000000000    0.5000000000
   0.8750000000    0.5000000000    0.5000000000
   0.2500000000    0.1250000000    0.2500000000
   0.8750000000    0.0000000000    0.2500000000
   0.3750000000    0.5000000000    0.2500000000
   0.8750000000    0.5000000000    0.2500000000
   0.3750000000    0.0000000000    0.7500000000
   0.8750000000    0.0000000000    0.7500000000
   0.3750000000    0.5000000000    0.7500000000
   0.8750000000    0.5000000000    0.7500000000
   0.1250000000    0.2500000000    0.0000000000
   0.6250000000    0.2500000000    0.0000000000
   0.1250000000    0.7500000000    0.0000000000
   0.6250000000    0.7500000000    0.0000000000
   0.1250000000    0.2500000000    0.5000000000
   0.6250000000    0.2500000000    0.5000000000
   0.1250000000    0.7500000000    0.5000000000
   0.6250000000    0.7500000000    0.5000000000
   0.3750000000    0.2500000000    0.0000000000
   0.8750000000    0.2500000000    0.0000000000
   0.3750000000    0.7500000000    0.0000000000
   0.8750000000    0.7500000000    0.0000000000
   0.3750000000    0.2500000000    0.5000000000
   0.8750000000    0.2500000000    0.5000000000
   0.2500000000    0.7500000000    0.6250000000
   0.8750000000    0.7500000000    0.5000000000
   0.1250000000    0.0000000000    0.2500000000
   0.6250000000    0.0000000000    0.2500000000
   0.1250000000    0.5000000000    0.2500000000
   0.6250000000    0.5000000000    0.2500000000
   0.1250000000    0.0000000000    0.7500000000
   0.6250000000    0.0000000000    0.7500000000
   0.6250000000    0.5000000000    0.7500000000
   0.1250000000    0.0000000000    0.0000000000
   0.6250000000    0.0000000000    0.0000000000
   0.1250000000    0.5000000000    0.0000000000
   0.6250000000    0.5000000000    0.0000000000
   0.6250000000    0.0000000000    0.5000000000
   0.2500000000    0.5000000000    0.6250000000
   0.6250000000    0.5000000000    0.5000000000
   0.3750000000    0.1250000000    0.3750000000
   0.8750000000    0.2500000000    0.2500000000
   0.3750000000    0.7500000000    0.2500000000
   0.8750000000    0.7500000000    0.2500000000
   0.3750000000    0.2500000000    0.7500000000
   0.8750000000    0.2500000000    0.7500000000
   0.3750000000    0.7500000000    0.7500000000
   0.8750000000    0.7500000000    0.7500000000
   0.7500000000    0.1250000000    0.2500000000
   0.2500000000    0.6250000000    0.2500000000
   0.7500000000    0.6250000000    0.2500000000
   0.2500000000    0.1250000000    0.7500000000
   0.7500000000    0.1250000000    0.7500000000
   0.7500000000    0.6250000000    0.7500000000
   0.0000000000    0.3750000000    0.0000000000
   0.5000000000    0.3750000000    0.0000000000
   0.0000000000    0.8750000000    0.0000000000
   0.5000000000    0.8750000000    0.0000000000
   0.0000000000    0.3750000000    0.5000000000
   0.5000000000    0.3750000000    0.5000000000
   0.5000000000    0.8750000000    0.5000000000
   0.0000000000    0.3750000000    0.2500000000
   0.5000000000    0.3750000000    0.2500000000
   0.0000000000    0.8750000000    0.2500000000
   0.5000000000    0.8750000000    0.2500000000
   0.0000000000    0.3750000000    0.7500000000
   0.5000000000    0.3750000000    0.7500000000
   0.0000000000    0.8750000000    0.7500000000
   0.5000000000    0.8750000000    0.7500000000
   0.2500000000    0.1250000000    0.0000000000
   0.7500000000    0.1250000000    0.0000000000
   0.2500000000    0.6250000000    0.0000000000
   0.7500000000    0.6250000000    0.0000000000
   0.2500000000    0.1250000000    0.5000000000
   0.7500000000    0.1250000000    0.5000000000
   0.2500000000    0.6250000000    0.5000000000
   0.7500000000    0.6250000000    0.5000000000
   0.0000000000    0.1250000000    0.0000000000
   0.5000000000    0.1250000000    0.0000000000
   0.0000000000    0.6250000000    0.0000000000
   0.5000000000    0.6250000000    0.0000000000
   0.0000000000    0.1250000000    0.5000000000
   0.5000000000    0.1250000000    0.5000000000
   0.1250000000    0.5000000000    0.5000000000
   0.5000000000    0.6250000000    0.5000000000
   0.2500000000    0.3750000000    0.2500000000
   0.7500000000    0.3750000000    0.2500000000
   0.2500000000    0.8750000000    0.2500000000
   0.7500000000    0.8750000000    0.2500000000
   0.2500000000    0.3750000000    0.7500000000
   0.7500000000    0.3750000000    0.7500000000
   0.3750000000    0.8750000000    0.8750000000
   0.7500000000    0.8750000000    0.7500000000
   0.2500000000    0.3750000000    0.0000000000
   0.7500000000    0.3750000000    0.0000000000
   0.2500000000    0.8750000000    0.0000000000
   0.7500000000    0.8750000000    0.0000000000
   0.2500000000    0.3750000000    0.5000000000
   0.7500000000    0.3750000000    0.5000000000
   0.2500000000    0.8750000000    0.5000000000
   0.7500000000    0.8750000000    0.5000000000
   0.0000000000    0.1250000000    0.2500000000
   0.5000000000    0.1250000000    0.2500000000
   0.0000000000    0.6250000000    0.2500000000
   0.5000000000    0.6250000000    0.2500000000
   0.5000000000    0.1250000000    0.7500000000
   0.0000000000    0.6250000000    0.7500000000
   0.5000000000    0.6250000000    0.7500000000
   0.2500000000    0.2500000000    0.1250000000
   0.7500000000    0.2500000000    0.1250000000
   0.2500000000    0.7500000000    0.1250000000
   0.7500000000    0.7500000000    0.1250000000
   0.2500000000    0.2500000000    0.6250000000
   0.7500000000    0.2500000000    0.6250000000
   0.3750000000    0.7500000000    0.5000000000
   0.7500000000    0.7500000000    0.6250000000
   0.0000000000    0.0000000000    0.3750000000
   0.5000000000    0.0000000000    0.3750000000
   0.0000000000    0.5000000000    0.3750000000
   0.3750000000    0.5000000000    0.5000000000
   0.8750000000    0.1250000000    0.8750000000
   0.5000000000    0.0000000000    0.8750000000
   0.0000000000    0.5000000000    0.8750000000
   0.5000000000    0.5000000000    0.8750000000
   0.0000000000    0.0000000000    0.1250000000
   0.5000000000    0.0000000000    0.1250000000
   0.0000000000    0.5000000000    0.1250000000
   0.5000000000    0.5000000000    0.1250000000
   0.0000000000    0.0000000000    0.6250000000
   0.5000000000    0.0000000000    0.6250000000
   0.0000000000    0.5000000000    0.6250000000
   0.5000000000    0.5000000000    0.6250000000
   0.2500000000    0.2500000000    0.3750000000
   0.7500000000    0.2500000000    0.3750000000
   0.2500000000    0.7500000000    0.3750000000
   0.7500000000    0.7500000000    0.3750000000
   0.2500000000    0.2500000000    0.8750000000
   0.7500000000    0.2500000000    0.8750000000
   0.2500000000    0.7500000000    0.8750000000
   0.7500000000    0.7500000000    0.8750000000
   0.0000000000    0.2500000000    0.3750000000
   0.5000000000    0.2500000000    0.3750000000
   0.0000000000    0.7500000000    0.3750000000
   0.5000000000    0.7500000000    0.3750000000
   0.0000000000    0.2500000000    0.8750000000
   0.5000000000    0.2500000000    0.8750000000
   0.0000000000    0.7500000000    0.8750000000
   0.5000000000    0.7500000000    0.8750000000
   0.2500000000    0.0000000000    0.1250000000
   0.7500000000    0.0000000000    0.1250000000
   0.2500000000    0.5000000000    0.1250000000
   0.7500000000    0.5000000000    0.1250000000
   0.2500000000    0.0000000000    0.6250000000
   0.7500000000    0.0000000000    0.6250000000
   0.7500000000    0.5000000000    0.6250000000
   0.2500000000    0.0000000000    0.3750000000
   0.8750000000    0.8750000000    0.3750000000
   0.2500000000    0.5000000000    0.3750000000
   0.7500000000    0.5000000000    0.3750000000
   0.2500000000    0.8750000000    0.7500000000
   0.7500000000    0.0000000000    0.8750000000
   0.2500000000    0.5000000000    0.8750000000
   0.7500000000    0.5000000000    0.8750000000
   0.0000000000    0.2500000000    0.1250000000
   0.5000000000    0.2500000000    0.1250000000
   0.0000000000    0.7500000000    0.1250000000
   0.5000000000    0.7500000000    0.1250000000
   0.0000000000    0.2500000000    0.6250000000
   0.5000000000    0.2500000000    0.6250000000
   0.0000000000    0.7500000000    0.6250000000
   0.5000000000    0.7500000000    0.6250000000
Direct configuration=     4
   0.1250000000    0.1250000000    0.1250000000
   0.6250000000    0.1250000000    0.1250000000
   0.1250000000    0.6250000000    0.1250000000
   0.6250000000    0.6250000000    0.1250000000
   0.1250000000    0.1250000000    0.6250000000
   0.6250000000    0.1250000000    0.6250000000
   0.1250000000    0.6250000000    0.6250000000
   0.6250000000    0.6250000000    0.6250000000
   0.3750000000    0.3750000000    0.3750000000
   0.8750000000    0.3750000000    0.3750000000
   0.3750000000    0.8750000000    0.3750000000
   0.0000000000    0.8750000000    0.5000000000
   0.3750000000    0.3750000000    0.8750000000
   0.8750000000    0.3750000000    0.8750000000
   0.8750000000    0.8750000000    0.8750000000
   0.3750000000    0.1250000000    0.1250000000
   0.8750000000    0.3750000000    0.1250000000
   0.3750000000    0.8750000000    0.1250000000
   0.8750000000    0.8750000000    0.1250000000
   0.3750000000    0.3750000000    0.6250000000
   0.8750000000    0.3750000000    0.6250000000
   0.3750000000    0.8750000000    0.6250000000
   0.8750000000    0.8750000000    0.6250000000
   0.1250000000    0.0000000000    0.5000000000
   0.6250000000    0.1250000000    0.3750000000
   0.1250000000    0.6250000000    0.3750000000
   0.6250000000    0.6250000000    0.3750000000
   0.1250000000    0.1250000000    0.8750000000
   0.6250000000    0.1250000000    0.8750000000
   0.1250000000    0.6250000000    0.8750000000
   0.6250000000    0.6250000000    0.8750000000
   0.8750000000    0.1250000000    0.3750000000
   0.8750000000    0.6250000000    0.3750000000
   0.3750000000    0.1250000000    0.8750000000
   0.0000000000    0.1250000000    0.7500000000
   0.3750000000    0.6250000000    0.8750000000
   0.8750000000    0.6250000000    0.8750000000
   0.1250000000    0.3750000000    0.1250000000
   0.6250000000    0.3750000000    0.1250000000
   0.1250000000    0.8750000000    0.1250000000
   0.6250000000    0.8750000000    0.1250000000
   0.1250000000    0.3750000000    0.6250000000
   0.6250000000    0.3750000000    0.6250000000
   0.1250000000    0.8750000000    0.6250000000
   0.6250000000    0.8750000000    0.6250000000
   0.1250000000    0.3750000000    0.3750000000
   0.6250000000    0.3750000000    0.3750000000
   0.1250000000    0.8750000000    0.3750000000
   0.6250000000    0.8750000000    0.3750000000
   0.1250000000    0.3750000000    0.8750000000
   0.6250000000    0.3750000000    0.8750000000
   0.1250000000    0.8750000000    0.8750000000
   0.6250000000    0.8750000000    0.8750000000
   0.3750000000    0.0000000000    0.0000000000
   0.8750000000    0.1250000000    0.1250000000
   0.3750000000    0.6250000000    0.1250000000
   0.8750000000    0.6250000000    0.1250000000
   0.3750000000    0.1250000000    0.6250000000
   0.8750000000    0.1250000000    0.6250000000
   0.2500000000    0.6250000000    0.7500000000
   0.1250000000    0.2500000000    0.2500000000
   0.6250000000    0.2500000000    0.2500000000
   0.1250000000    0.7500000000    0.2500000000
   0.6250000000    0.7500000000    0.2500000000
   0.1250000000    0.2500000000    0.7500000000
   0.6250000000    0.2500000000    0.7500000000
   0.1250000000    0.7500000000    0.7500000000
   0.6250000000    0.7500000000    0.7500000000
   0.8750000000    0.0000000000    0.0000000000
   0.3750000000    0.5000000000    0.0000000000
   0.8750000000    0.5000000000    0.0000000000
   0.3750000000    0.0000000000    0.5000000000
   0.8750000000    0.0000000000    0.5000000000
   0.8750000000    0.5000000000    0.5000000000
   0.2500000000    0.1250000000    0.2500000000
   0.8750000000    0.0000000000    0.2500000000
   0.3750000000    0.5000000000    0.2500000000
   0.8750000000    0.5000000000    0.2500000000
   0.3750000000    0.0000000000    0.7500000000
   0.8750000000    0.0000000000    0.7500000000
   0.3750000000    0.5000000000    0.7500000000
   0.8750000000    0.5000000000    0.7500000000
   0.1250000000    0.2500000000    0.0000000000
   0.6250000000    0.2500000000    0.0000000000
   0.1250000000    0.7500000000    0.0000000000
   0.6250000000    0.7500000000    0.0000000000
   0.1250000000    0.2500000000    0.5000000000
   0.6250000000    0.2500000000    0.5000000000
   0.1250000000    0.7500000000    0.5000000000
   0.6250000000    0.7500000000    0.5000000000
   0.3750000000    0.2500000000    0.0000000000
   0.8750000000    0.2500000000    0.0000000000
   0.3750000000    0.7500000000    0.0000000000
   0.8750000000    0.7500000000    0.0000000000
   0.3750000000    0.2500000000    0.5000000000
   0.8750000000    0.2500000000    0.5000000000
   0.2500000000    0.7500000000    0.6250000000
   0.8750000000    0.7500000000    0.5000000000
   0.1250000000    0.0000000000    0.2500000000
   0.6250000000    0.0000000000    0.2500000000
   0.1250000000    0.5000000000    0.2500000000
   0.6250000000    0.5000000000    0.2500000000
   0.1250000000    0.0000000000    0.7500000000
   0.6250000000    0.0000000000    0.7500000000
   0.6250000000    0.5000000000    0.7500000000
   0.1250000000    0.0000000000    0.0000000000
   0.6250000000    0.0000000000    0.0000000000
   0.1250000000    0.5000000000    0.0000000000
   0.6250000000    0.5000000000    0.0000000000
   0.7500000000    0.0000000000    0.3750000000
   0.2500000000    0.5000000000    0.6250000000
   0.6250000000    0.5000000000    0.5000000000
   0.3750000000    0.1250000000    0.3750000000
   0.8750000000    0.2500000000    0.2500000000
   0.3750000000    0.7500000000    0.2500000000
   0.8750000000    0.7500000000    0.2500000000
   0.3750000000    0.2500000000    0.7500000000
   0.8750000000    0.2500000000    0.7500000000
   0.3750000000    0.7500000000    0.7500000000
   0.8750000000    0.7500000000    0.7500000000
   0.7500000000    0.1250000000    0.2500000000
   0.2500000000    0.6250000000    0.2500000000
   0.7500000000    0.6250000000    0.2500000000
   0.2500000000    0.1250000000    0.7500000000
   0.7500000000    0.1250000000    0.7500000000
   0.7500000000    0.6250000000    0.7500000000
   0.0000000000    0.3750000000    0.0000000000
   0.5000000000    0.3750000000    0.0000000000
   0.0000000000    0.8750000000    0.0000000000
   0.5000000000    0.8750000000    0.0000000000
   0.0000000000    0.3750000000    0.5000000000
   0.5000000000    0.3750000000    0.5000000000
   0.5000000000    0.8750000000    0.5000000000
   0.0000000000    0.3750000000    0.2500000000
   0.5000000000    0.3750000000    0.2500000000
   0.0000000000    0.8750000000    0.2500000000
   0.5000000000    0.8750000000    0.2500000000
   0.0000000000    0.3750000000    0.7500000000
   0.5000000000    0.3750000000    0.7500000000
   0.0000000000    0.8750000000    0.7500000000
   0.5000000000    0.8750000000    0.7500000000
   0.2500000000    0.1250000000    0.0000000000
   0.7500000000    0.1250000000    0.0000000000
   0.2500000000    0.6250000000    0.0000000000
   0.7500000000    0.6250000000    0.0000000000
   0.2500000000    0.1250000000    0.5000000000
   0.7500000000    0.1250000000    0.5000000000
   0.3750000000    0.6250000000    0.6250000000
   0.7500000000    0.6250000000    0.5000000000
   0.0000000000    0.1250000000    0.0000000000
   0.5000000000    0.1250000000    0.0000000000
   0.0000000000    0.6250000000    0.0000000000
   0.5000000000    0.6250000000    0.0000000000
   0.0000000000    0.1250000000    0.5000000000
   0.5000000000    0.1250000000    0.5000000000
   0.1250000000    0.5000000000    0.5000000000
   0.3750000000    0.6250000000    0.3750000000
   0.2500000000    0.3750000000    0.2500000000
   0.7500000000    0.3750000000    0.2500000000
   0.2500000000    0.0000000000    0.3750000000
   0.7500000000    0.8750000000    0.2500000000
   0.2500000000    0.3750000000    0.7500000000
   0.7500000000    0.3750000000    0.7500000000
   0.3750000000    0.8750000000    0.8750000000
   0.7500000000    0.8750000000    0.7500000000
   0.2500000000    0.3750000000    0.0000000000
   0.7500000000    0.3750000000    0.0000000000
   0.2500000000    0.8750000000    0.0000000000
   0.7500000000    0.8750000000    0.0000000000
   0.2500000000    0.3750000000    0.5000000000
   0.7500000000    0.3750000000    0.5000000000
   0.2500000000    0.8750000000    0.5000000000
   0.7500000000    0.8750000000    0.5000000000
   0.0000000000    0.1250000000    0.2500000000
   0.5000000000    0.1250000000    0.2500000000
   0.0000000000    0.6250000000    0.2500000000
   0.5000000000    0.6250000000    0.2500000000
   0.5000000000    0.1250000000    0.7500000000
   0.0000000000    0.6250000000    0.7500000000
   0.5000000000    0.6250000000    0.7500000000
   0.2500000000    0.2500000000    0.1250000000
   0.7500000000    0.2500000000    0.1250000000
   0.2500000000    0.7500000000    0.1250000000
   0.7500000000    0.7500000000    0.1250000000
   0.2500000000    0.2500000000    0.6250000000
   0.7500000000    0.2500000000    0.6250000000
   0.5000000000    0.6250000000    0.5000000000
   0.7500000000    0.7500000000    0.6250000000
   0.0000000000    0.0000000000    0.3750000000
   0.6250000000    0.0000000000    0.5000000000
   0.0000000000    0.5000000000    0.3750000000
   0.3750000000    0.5000000000    0.5000000000
   0.8750000000    0.1250000000    0.8750000000
   0.5000000000    0.0000000000    0.8750000000
   0.0000000000    0.5000000000    0.8750000000
   0.5000000000    0.5000000000    0.8750000000
   0.0000000000    0.0000000000    0.1250000000
   0.5000000000    0.0000000000    0.1250000000
   0.0000000000    0.5000000000    0.1250000000
   0.5000000000    0.5000000000    0.1250000000
   0.0000000000    0.0000000000    0.6250000000
   0.5000000000    0.0000000000    0.6250000000
   0.0000000000    0.5000000000    0.6250000000
   0.5000000000    0.5000000000    0.6250000000
   0.2500000000    0.2500000000    0.3750000000
   0.7500000000    0.2500000000    0.3750000000
   0.2500000000    0.7500000000    0.3750000000
   0.7500000000    0.7500000000    0.3750000000
   0.2500000000    0.2500000000    0.8750000000
   0.7500000000    0.2500000000    0.8750000000
   0.2500000000    0.7500000000    0.8750000000
   0.7500000000    0.7500000000    0.8750000000
   0.0000000000    0.2500000000    0.3750000000
   0.5000000000    0.2500000000    0.3750000000
   0.0000000000    0.7500000000    0.3750000000
   0.5000000000    0.7500000000    0.3750000000
   0.0000000000    0.2500000000    0.8750000000
   0.5000000000    0.2500000000    0.8750000000
   0.0000000000    0.7500000000    0.8750000000
   0.5000000000    0.7500000000    0.8750000000
   0.2500000000    0.0000000000    0.1250000000
   0.7500000000    0.0000000000    0.1250000000
   0.2500000000    0.5000000000    0.1250000000
   0.7500000000    0.5000000000    0.1250000000
   0.2500000000    0.0000000000    0.6250000000
   0.7500000000    0.0000000000    0.6250000000
   0.7500000000    0.5000000000    0.6250000000
   0.1250000000    0.1250000000    0.3750000000
   0.8750000000    0.8750000000    0.3750000000
   0.2500000000    0.5000000000    0.3750000000
   0.7500000000    0.5000000000    0.3750000000
   0.2500000000    0.8750000000    0.7500000000
   0.7500000000    0.0000000000    0.8750000000
   0.2500000000    0.5000000000    0.8750000000
   0.7500000000    0.5000000000    0.8750000000
   0.0000000000    0.2500000000    0.1250000000
   0.5000000000    0.2500000000    0.1250000000
   0.0000000000    0.7500000000    0.1250000000
   0.5000000000    0.7500000000    0.1250000000
   0.0000000000    0.2500000000    0.6250000000
   0.5000000000    0.2500000000    0.6250000000
   0.0000000000    0.7500000000    0.6250000000
   0.5000000000    0.7500000000    0.6250000000
Direct configuration=     5
   0.1250000000    0.1250000000    0.1250000000
   0.6250000000    0.1250000000    0.1250000000
   0.1250000000    0.6250000000    0.1250000000
   0.6250000000    0.6250000000    0.1250000000
   0.1250000000    0.1250000000    0.6250000000
   0.6250000000    0.1250000000    0.6250000000
   0.1250000000    0.6250000000    0.6250000000
   0.6250000000    0.6250000000    0.6250000000
   0.3750000000    0.3750000000    0.3750000000
   0.8750000000    0.3750000000    0.3750000000
   0.3750000000    0.8750000000    0.3750000000
   0.0000000000    0.8750000000    0.5000000000
   0.3750000000    0.3750000000    0.8750000000
   0.8750000000    0.3750000000    0.8750000000
   0.8750000000    0.8750000000    0.8750000000
   0.3750000000    0.1250000000    0.1250000000
   0.8750000000    0.3750000000    0.1250000000
   0.3750000000    0.8750000000    0.1250000000
   0.8750000000    0.8750000000    0.1250000000
   0.3750000000    0.3750000000    0.6250000000
   0.8750000000    0.3750000000    0.6250000000
   0.3750000000    0.8750000000    0.6250000000
   0.8750000000    0.8750000000    0.6250000000
   0.2500000000    0.8750000000    0.5000000000
   0.6250000000    0.1250000000    0.3750000000
   0.1250000000    0.6250000000    0.3750000000
   0.5000000000    0.5000000000    0.3750000000
   0.1250000000    0.1250000000    0.8750000000
   0.6250000000    0.1250000000    0.8750000000
   0.1250000000    0.5000000000    0.7500000000
   0.6250000000    0.6250000000    0.8750000000
   0.8750000000    0.1250000000    0.3750000000
   0.8750000000    0.6250000000    0.3750000000
   0.3750000000    0.1250000000    0.8750000000
   0.0000000000    0.1250000000    0.7500000000
   0.3750000000    0.6250000000    0.8750000000
   0.8750000000    0.6250000000    0.8750000000
   0.1250000000    0.3750000000    0.1250000000
   0.6250000000    0.3750000000    0.1250000000
   0.1250000000    0.8750000000    0.1250000000
   0.6250000000    0.8750000000    0.1250000000
   0.1250000000    0.3750000000    0.6250000000
   0.6250000000    0.3750000000    0.6250000000
   0.1250000000    0.8750000000    0.6250000000
   0.6250000000    0.8750000000    0.6250000000
   0.1250000000    0.3750000000    0.3750000000
   0.6250000000    0.3750000000    0.3750000000
   0.1250000000    0.8750000000    0.3750000000
   0.6250000000    0.8750000000    0.3750000000
   0.1250000000    0.3750000000    0.8750000000
   0.6250000000    0.3750000000    0.8750000000
   0.1250000000    0.8750000000    0.8750000000
   0.6250000000    0.8750000000    0.8750000000
   0.3750000000    0.0000000000    0.0000000000
   0.8750000000    0.1250000000    0.1250000000
   0.3750000000    0.6250000000    0.1250000000
   0.8750000000    0.6250000000    0.1250000000
   0.3750000000    0.1250000000    0.6250000000
   0.8750000000    0.1250000000    0.6250000000
   0.2500000000    0.6250000000    0.7500000000
   0.1250000000    0.2500000000    0.2500000000
   0.6250000000    0.2500000000    0.2500000000
   0.1250000000    0.7500000000    0.2500000000
   0.6250000000    0.7500000000    0.2500000000
   0.1250000000    0.2500000000    0.7500000000
   0.6250000000    0.2500000000    0.7500000000
   0.1250000000    0.7500000000    0.7500000000
   0.6250000000    0.7500000000    0.7500000000
   0.8750000000    0.0000000000    0.0000000000
   0.3750000000    0.5000000000    0.0000000000
   0.8750000000    0.5000000000    0.0000000000
   0.3750000000    0.0000000000    0.5000000000
   0.8750000000    0.0000000000    0.5000000000
   0.8750000000    0.5000000000    0.5000000000
   0.2500000000    0.1250000000    0.2500000000
   0.8750000000    0.0000000000    0.2500000000
   0.3750000000    0.5000000000    0.2500000000
   0.8750000000    0.5000000000    0.2500000000
   0.3750000000    0.0000000000    0.7500000000
   0.8750000000    0.0000000000    0.7500000000
   0.3750000000    0.5000000000    0.7500000000
   0.8750000000    0.5000000000    0.7500000000
   0.1250000000    0.2500000000    0.0000000000
   0.6250000000    0.2500000000    0.0000000000
   0.1250000000    0.6250000000    0.8750000000
   0.6250000000    0.7500000000    0.0000000000
   0.1250000000    0.2500000000    0.5000000000
   0.6250000000    0.2500000000    0.5000000000
   0.1250000000    0.7500000000    0.5000000000
   0.6250000000    0.7500000000    0.5000000000
   0.3750000000    0.2500000000    0.0000000000
   0.8750000000    0.2500000000    0.0000000000
   0.3750000000    0.7500000000    0.0000000000
   0.8750000000    0.7500000000    0.0000000000
   0.3750000000    0.2500000000    0.5000000000
   0.8750000000    0.2500000000    0.5000000000
   0.2500000000    0.7500000000    0.6250000000
   0.8750000000    0.7500000000    0.5000000000
   0.1250000000    0.0000000000    0.2500000000
   0.6250000000    0.0000000000    0.2500000000
   0.1250000000    0.5000000000    0.2500000000
   0.6250000000    0.5000000000    0.2500000000
   0.1250000000    0.0000000000    0.7500000000
   0.6250000000    0.0000000000    0.7500000000
   0.6250000000    0.5000000000    0.7500000000
   0.1250000000    0.0000000000    0.0000000000
   0.6250000000    0.0000000000    0.0000000000
   0.1250000000    0.5000000000    0.0000000000
   0.6250000000    0.5000000000    0.0000000000
   0.7500000000    0.0000000000    0.3750000000
   0.2500000000    0.5000000000    0.6250000000
   0.6250000000    0.5000000000    0.5000000000
   0.3750000000    0.1250000000    0.3750000000
   0.8750000000    0.2500000000    0.2500000000
   0.3750000000    0.7500000000    0.2500000000
   0.8750000000    0.7500000000    0.2500000000
   0.3750000000    0.2500000000    0.7500000000
   0.8750000000    0.2500000000    0.7500000000
   0.3750000000    0.7500000000    0.7500000000
   0.8750000000    0.7500000000    0.7500000000
   0.7500000000    0.1250000000    0.2500000000
   0.2500000000    0.6250000000    0.2500000000
   0.7500000000    0.6250000000    0.2500000000
   0.2500000000    0.1250000000    0.7500000000
   0.7500000000    0.1250000000    0.7500000000
   0.7500000000    0.6250000000    0.7500000000
   0.0000000000    0.3750000000    0.0000000000
   0.5000000000    0.3750000000    0.0000000000
   0.0000000000    0.8750000000    0.0000000000
   0.5000000000    0.8750000000    0.0000000000
   0.0000000000    0.3750000000    0.5000000000
   0.5000000000    0.3750000000    0.5000000000
   0.5000000000    0.8750000000    0.5000000000
   0.0000000000    0.3750000000    0.2500000000
   0.5000000000    0.3750000000    0.2500000000
   0.0000000000    0.8750000000    0.2500000000
   0.5000000000    0.8750000000    0.2500000000
   0.0000000000    0.3750000000    0.7500000000
   0.5000000000    0.3750000000    0.7500000000
   0.0000000000    0.8750000000    0.7500000000
   0.5000000000    0.8750000000    0.7500000000
   0.2500000000    0.1250000000    0.0000000000
   0.7500000000    0.1250000000    0.0000000000
   0.2500000000    0.6250000000    0.0000000000
   0.7500000000    0.6250000000    0.0000000000
   0.2500000000    0.1250000000    0.5000000000
   0.7500000000    0.1250000000    0.5000000000
   0.3750000000    0.6250000000    0.6250000000
   0.7500000000    0.6250000000    0.5000000000
   0.0000000000    0.0000000000    0.8750000000
   0.5000000000    0.1250000000    0.0000000000
   0.0000000000    0.6250000000    0.0000000000
   0.5000000000    0.6250000000    0.0000000000
   0.0000000000    0.1250000000    0.5000000000
   0.5000000000    0.1250000000    0.5000000000
   0.1250000000    0.5000000000    0.5000000000
   0.2500000000    0.6250000000    0.5000000000
   0.2500000000    0.3750000000    0.2500000000
   0.7500000000    0.3750000000    0.2500000000
   0.2500000000    0.0000000000    0.3750000000
   0.7500000000    0.8750000000    0.2500000000
   0.2500000000    0.3750000000    0.7500000000
   0.7500000000    0.3750000000    0.7500000000
   0.3750000000    0.8750000000    0.8750000000
   0.7500000000    0.8750000000    0.7500000000
   0.2500000000    0.3750000000    0.0000000000
   0.7500000000    0.3750000000    0.0000000000
   0.2500000000    0.8750000000    0.0000000000
   0.7500000000    0.8750000000    0.0000000000
   0.2500000000    0.3750000000    0.5000000000
   0.7500000000    0.3750000000    0.5000000000
   0.3750000000    0.7500000000    0.5000000000
   0.7500000000    0.8750000000    0.5000000000
   0.0000000000    0.1250000000    0.2500000000
   0.5000000000    0.1250000000    0.2500000000
   0.0000000000    0.6250000000    0.2500000000
   0.5000000000    0.6250000000    0.2500000000
   0.5000000000    0.1250000000    0.7500000000
   0.0000000000    0.6250000000    0.7500000000
   0.5000000000    0.6250000000    0.7500000000
   0.3750000000    0.2500000000    0.2500000000
   0.7500000000    0.2500000000    0.1250000000
   0.2500000000    0.7500000000    0.1250000000
   0.7500000000    0.7500000000    0.1250000000
   0.2500000000    0.2500000000    0.6250000000
   0.7500000000    0.2500000000    0.6250000000
   0.5000000000    0.6250000000    0.5000000000
   0.7500000000    0.7500000000    0.6250000000
   0.0000000000    0.0000000000    0.3750000000
   0.6250000000    0.0000000000    0.5000000000
   0.0000000000    0.5000000000    0.3750000000
   0.3750000000    0.5000000000    0.5000000000
   0.8750000000    0.1250000000    0.8750000000
   0.5000000000    0.0000000000    0.8750000000
   0.0000000000    0.5000000000    0.8750000000
   0.5000000000    0.5000000000    0.8750000000
   0.0000000000    0.0000000000    0.1250000000
   0.5000000000    0.0000000000    0.1250000000
   0.0000000000    0.5000000000    0.1250000000
   0.5000000000    0.5000000000    0.1250000000
   0.1250000000    0.0000000000    0.5000000000
   0.5000000000    0.0000000000    0.6250000000
   0.0000000000    0.5000000000    0.6250000000
   0.5000000000    0.5000000000    0.6250000000
   0.2500000000    0.2500000000    0.3750000000
   0.7500000000    0.2500000000    0.3750000000
   0.2500000000    0.8750000000    0.2500000000
   0.7500000000    0.7500000000    0.3750000000
   0.2500000000    0.2500000000    0.8750000000
   0.7500000000    0.2500000000    0.8750000000
   0.2500000000    0.7500000000    0.8750000000
   0.7500000000    0.7500000000    0.8750000000
   0.0000000000    0.2500000000    0.3750000000
   0.5000000000    0.2500000000    0.3750000000
   0.0000000000    0.7500000000    0.3750000000
   0.5000000000    0.7500000000    0.3750000000
   0.0000000000    0.2500000000    0.8750000000
   0.5000000000    0.2500000000    0.8750000000
   0.0000000000    0.7500000000    0.8750000000
   0.5000000000    0.7500000000    0.8750000000
   0.2500000000    0.0000000000    0.1250000000
   0.7500000000    0.0000000000    0.1250000000
   0.2500000000    0.5000000000    0.1250000000
   0.7500000000    0.5000000000    0.1250000000
   0.2500000000    0.0000000000    0.6250000000
   0.7500000000    0.0000000000    0.6250000000
   0.7500000000    0.5000000000    0.6250000000
   0.1250000000    0.1250000000    0.3750000000
   0.8750000000    0.8750000000    0.3750000000
   0.2500000000    0.5000000000    0.3750000000
   0.7500000000    0.5000000000    0.3750000000
   0.2500000000    0.8750000000    0.7500000000
   0.7500000000    0.0000000000    0.8750000000
   0.2500000000    0.5000000000    0.8750000000
   0.7500000000    0.5000000000    0.8750000000
   0.0000000000    0.2500000000    0.1250000000
   0.5000000000    0.2500000000    0.1250000000
   0.0000000000    0.7500000000    0.1250000000
   0.5000000000    0.7500000000    0.1250000000
   0.0000000000    0.2500000000    0.6250000000
   0.5000000000    0.2500000000    0.6250000000
   0.0000000000    0.7500000000    0.6250000000
   0.5000000000    0.7500000000    0.6250000000
Direct configuration=     6
   0.1250000000    0.1250000000    0.1250000000
   0.6250000000    0.1250000000    0.1250000000
   0.1250000000    0.6250000000    0.1250000000
   0.6250000000    0.6250000000    0.1250000000
   0.1250000000    0.1250000000    0.6250000000
   0.6250000000    0.1250000000    0.6250000000
   0.0000000000    0.6250000000    0.5000000000
   0.6250000000    0.6250000000    0.6250000000
   0.3750000000    0.3750000000    0.3750000000
   0.8750000000    0.3750000000    0.3750000000
   0.3750000000    0.8750000000    0.3750000000
   0.0000000000    0.8750000000    0.5000000000
   0.3750000000    0.3750000000    0.8750000000
   0.8750000000    0.3750000000    0.8750000000
   0.8750000000    0.8750000000    0.8750000000
   0.3750000000    0.1250000000    0.1250000000
   0.8750000000    0.3750000000    0.1250000000
   0.3750000000    0.8750000000    0.1250000000
   0.8750000000    0.8750000000    0.1250000000
   0.3750000000    0.3750000000    0.6250000000
   0.8750000000    0.3750000000    0.6250000000
   0.3750000000    0.8750000000    0.6250000000
   0.8750000000    0.8750000000    0.6250000000
   0.2500000000    0.8750000000    0.5000000000
   0.6250000000    0.1250000000    0.3750000000
   0.1250000000    0.6250000000    0.3750000000
   0.5000000000    0.5000000000    0.3750000000
   0.1250000000    0.1250000000    0.8750000000
   0.6250000000    0.1250000000    0.8750000000
   0.1250000000    0.5000000000    0.7500000000
   0.6250000000    0.6250000000    0.8750000000
   0.8750000000    0.1250000000    0.3750000000
   0.8750000000    0.6250000000    0.3750000000
   0.3750000000    0.1250000000    0.8750000000
   0.0000000000    0.1250000000    0.7500000000
   0.3750000000    0.6250000000    0.8750000000
   0.8750000000    0.6250000000    0.8750000000
   0.1250000000    0.3750000000    0.1250000000
   0.6250000000    0.3750000000    0.1250000000
   0.1250000000    0.8750000000    0.1250000000
   0.6250000000    0.8750000000    0.1250000000
   0.1250000000    0.3750000000    0.6250000000
   0.6250000000    0.3750000000    0.6250000000
   0.1250000000    0.8750000000    0.6250000000
   0.6250000000    0.8750000000    0.6250000000
   0.1250000000    0.3750000000    0.3750000000
   0.6250000000    0.3750000000    0.3750000000
   0.1250000000    0.8750000000    0.3750000000
   0.6250000000    0.8750000000    0.3750000000
   0.1250000000    0.3750000000    0.8750000000
   0.6250000000    0.3750000000    0.8750000000
   0.1250000000    0.8750000000    0.8750000000
   0.6250000000    0.8750000000    0.8750000000
   0.3750000000    0.0000000000    0.0000000000
   0.0000000000    0.1250000000    0.0000000000
   0.3750000000    0.6250000000    0.1250000000
   0.8750000000    0.6250000000    0.1250000000
   0.3750000000    0.1250000000    0.6250000000
   0.0000000000    0.0000000000    0.6250000000
   0.2500000000    0.6250000000    0.7500000000
   0.1250000000    0.2500000000    0.2500000000
   0.6250000000    0.2500000000    0.2500000000
   0.1250000000    0.7500000000    0.2500000000
   0.6250000000    0.7500000000    0.2500000000
   0.1250000000    0.2500000000    0.7500000000
   0.6250000000    0.2500000000    0.7500000000
   0.1250000000    0.7500000000    0.7500000000
   0.6250000000    0.7500000000    0.7500000000
   0.8750000000    0.0000000000    0.0000000000
   0.3750000000    0.5000000000    0.0000000000
   0.8750000000    0.5000000000    0.0000000000
   0.3750000000    0.0000000000    0.5000000000
   0.8750000000    0.0000000000    0.5000000000
   0.8750000000    0.5000000000    0.5000000000
   0.2500000000    0.1250000000    0.2500000000
   0.8750000000    0.0000000000    0.2500000000
   0.2500000000    0.6250000000    0.2500000000
   0.8750000000    0.5000000000    0.2500000000
   0.3750000000    0.0000000000    0.7500000000
   0.8750000000    0.0000000000    0.7500000000
   0.3750000000    0.5000000000    0.7500000000
   0.8750000000    0.5000000000    0.7500000000
   0.1250000000    0.2500000000    0.0000000000
   0.6250000000    0.2500000000    0.0000000000
   0.1250000000    0.6250000000    0.8750000000
   0.6250000000    0.7500000000    0.0000000000
   0.1250000000    0.2500000000    0.5000000000
   0.6250000000    0.2500000000    0.5000000000
   0.1250000000    0.7500000000    0.5000000000
   0.6250000000    0.7500000000    0.5000000000
   0.3750000000    0.2500000000    0.0000000000
   0.8750000000    0.2500000000    0.0000000000
   0.3750000000    0.7500000000    0.0000000000
   0.8750000000    0.7500000000    0.0000000000
   0.3750000000    0.2500000000    0.5000000000
   0.8750000000    0.2500000000    0.5000000000
   0.2500000000    0.7500000000    0.6250000000
   0.8750000000    0.7500000000    0.5000000000
   0.1250000000    0.0000000000    0.2500000000
   0.6250000000    0.0000000000    0.2500000000
   0.1250000000    0.5000000000    0.2500000000
   0.5000000000    0.6250000000    0.2500000000
   0.1250000000    0.0000000000    0.7500000000
   0.6250000000    0.0000000000    0.7500000000
   0.6250000000    0.5000000000    0.7500000000
   0.1250000000    0.0000000000    0.0000000000
   0.6250000000    0.0000000000    0.0000000000
   0.1250000000    0.5000000000    0.0000000000
   0.6250000000    0.5000000000    0.0000000000
   0.7500000000    0.0000000000    0.3750000000
   0.2500000000    0.5000000000    0.6250000000
   0.6250000000    0.5000000000    0.5000000000
   0.3750000000    0.1250000000    0.3750000000
   0.8750000000    0.2500000000    0.2500000000
   0.3750000000    0.7500000000    0.2500000000
   0.8750000000    0.7500000000    0.2500000000
   0.3750000000    0.2500000000    0.7500000000
   0.8750000000    0.2500000000    0.7500000000
   0.3750000000    0.7500000000    0.7500000000
   0.8750000000    0.7500000000    0.7500000000
   0.7500000000    0.1250000000    0.2500000000
   0.2500000000    0.7500000000    0.3750000000
   0.7500000000    0.6250000000    0.2500000000
   0.2500000000    0.1250000000    0.7500000000
   0.7500000000    0.1250000000    0.7500000000
   0.7500000000    0.6250000000    0.7500000000
   0.0000000000    0.3750000000    0.0000000000
   0.5000000000    0.3750000000    0.0000000000
   0.0000000000    0.8750000000    0.0000000000
   0.5000000000    0.8750000000    0.0000000000
   0.0000000000    0.3750000000    0.5000000000
   0.5000000000    0.3750000000    0.5000000000
   0.5000000000    0.8750000000    0.5000000000
   0.0000000000    0.3750000000    0.2500000000
   0.5000000000    0.3750000000    0.2500000000
   0.0000000000    0.8750000000    0.2500000000
   0.5000000000    0.8750000000    0.2500000000
   0.0000000000    0.3750000000    0.7500000000
   0.5000000000    0.3750000000    0.7500000000
   0.0000000000    0.8750000000    0.7500000000
   0.5000000000    0.8750000000    0.7500000000
   0.2500000000    0.1250000000    0.0000000000
   0.7500000000    0.1250000000    0.0000000000
   0.2500000000    0.6250000000    0.0000000000
   0.7500000000    0.6250000000    0.0000000000
   0.2500000000    0.1250000000    0.5000000000
   0.7500000000    0.1250000000    0.5000000000
   0.3750000000    0.6250000000    0.6250000000
   0.7500000000    0.6250000000    0.5000000000
   0.0000000000    0.0000000000    0.8750000000
   0.5000000000    0.1250000000    0.0000000000
   0.0000000000    0.6250000000    0.0000000000
   0.5000000000    0.6250000000    0.0000000000
   0.0000000000    0.1250000000    0.5000000000
   0.5000000000    0.1250000000    0.5000000000
   0.1250000000    0.5000000000    0.5000000000
   0.2500000000    0.6250000000    0.5000000000
   0.2500000000    0.3750000000    0.2500000000
   0.7500000000    0.3750000000    0.2500000000
   0.2500000000    0.0000000000    0.3750000000
   0.7500000000    0.8750000000    0.2500000000
   0.2500000000    0.3750000000    0.7500000000
   0.7500000000    0.3750000000    0.7500000000
   0.3750000000    0.8750000000    0.8750000000
   0.7500000000    0.8750000000    0.7500000000
   0.2500000000    0.3750000000    0.0000000000
   0.7500000000    0.3750000000    0.0000000000
   0.2500000000    0.8750000000    0.0000000000
   0.7500000000    0.8750000000    0.0000000000
   0.2500000000    0.3750000000    0.5000000000
   0.7500000000    0.3750000000    0.5000000000
   0.3750000000    0.7500000000    0.5000000000
   0.7500000000    0.8750000000    0.5000000000
   0.0000000000    0.1250000000    0.2500000000
   0.3750000000    0.0000000000    0.2500000000
   0.0000000000    0.6250000000    0.2500000000
   0.3750000000    0.5000000000    0.2500000000
   0.5000000000    0.1250000000    0.7500000000
   0.0000000000    0.6250000000    0.7500000000
   0.5000000000    0.6250000000    0.7500000000
   0.3750000000    0.2500000000    0.2500000000
   0.7500000000    0.2500000000    0.1250000000
   0.2500000000    0.7500000000    0.1250000000
   0.7500000000    0.7500000000    0.1250000000
   0.2500000000    0.2500000000    0.6250000000
   0.7500000000    0.2500000000    0.6250000000
   0.3750000000    0.6250000000    0.3750000000
   0.7500000000    0.7500000000    0.6250000000
   0.0000000000    0.0000000000    0.3750000000
   0.6250000000    0.0000000000    0.5000000000
   0.0000000000    0.5000000000    0.3750000000
   0.3750000000    0.5000000000    0.5000000000
   0.8750000000    0.1250000000    0.8750000000
   0.5000000000    0.0000000000    0.8750000000
   0.0000000000    0.5000000000    0.8750000000
   0.5000000000    0.5000000000    0.8750000000
   0.0000000000    0.0000000000    0.1250000000
   0.5000000000    0.0000000000    0.1250000000
   0.0000000000    0.5000000000    0.1250000000
   0.5000000000    0.5000000000    0.1250000000
   0.1250000000    0.0000000000    0.5000000000
   0.5000000000    0.0000000000    0.6250000000
   0.0000000000    0.5000000000    0.6250000000
   0.5000000000    0.5000000000    0.6250000000
   0.2500000000    0.2500000000    0.3750000000
   0.7500000000    0.2500000000    0.3750000000
   0.2500000000    0.8750000000    0.2500000000
   0.7500000000    0.7500000000    0.3750000000
   0.2500000000    0.2500000000    0.8750000000
   0.7500000000    0.2500000000    0.8750000000
   0.2500000000    0.7500000000    0.8750000000
   0.7500000000    0.7500000000    0.8750000000
   0.0000000000    0.2500000000    0.3750000000
   0.5000000000    0.2500000000    0.3750000000
   0.0000000000    0.7500000000    0.3750000000
   0.5000000000    0.7500000000    0.3750000000
   0.0000000000    0.2500000000    0.8750000000
   0.5000000000    0.2500000000    0.8750000000
   0.0000000000    0.7500000000    0.8750000000
   0.5000000000    0.7500000000    0.8750000000
   0.2500000000    0.0000000000    0.1250000000
   0.7500000000    0.0000000000    0.1250000000
   0.2500000000    0.5000000000    0.1250000000
   0.7500000000    0.5000000000    0.1250000000
   0.2500000000    0.0000000000    0.6250000000
   0.7500000000    0.0000000000    0.6250000000
   0.7500000000    0.5000000000    0.6250000000
   0.1250000000    0.1250000000    0.3750000000
   0.8750000000    0.8750000000    0.3750000000
   0.2500000000    0.5000000000    0.3750000000
   0.7500000000    0.5000000000    0.3750000000
   0.2500000000    0.8750000000    0.7500000000
   0.7500000000    0.0000000000    0.8750000000
   0.2500000000    0.5000000000    0.8750000000
   0.7500000000    0.5000000000    0.8750000000
   0.0000000000    0.2500000000    0.1250000000
   0.5000000000    0.2500000000    0.1250000000
   0.1250000000    0.7500000000    0.0000000000
   0.5000000000    0.7500000000    0.1250000000
   0.0000000000    0.2500000000    0.6250000000
   0.5000000000    0.2500000000    0.6250000000
   0.0000000000    0.7500000000    0.6250000000
   0.5000000000    0.7500000000    0.6250000000
Direct configuration=     7
   0.1250000000    0.1250000000    0.1250000000
   0.6250000000    0.1250000000    0.1250000000
   0.1250000000    0.6250000000    0.1250000000
   0.6250000000    0.6250000000    0.1250000000
   0.1250000000    0.1250000000    0.6250000000
   0.6250000000    0.1250000000    0.6250000000
   0.1250000000    0.6250000000    0.6250000000
   0.6250000000    0.6250000000    0.6250000000
   0.3750000000    0.3750000000    0.3750000000
   0.8750000000    0.3750000000    0.3750000000
   0.3750000000    0.8750000000    0.3750000000
   0.0000000000    0.8750000000    0.5000000000
   0.3750000000    0.3750000000    0.8750000000
   0.8750000000    0.3750000000    0.8750000000
   0.8750000000    0.8750000000    0.8750000000
   0.3750000000    0.1250000000    0.1250000000
   0.8750000000    0.3750000000    0.1250000000
   0.3750000000    0.8750000000    0.1250000000
   0.8750000000    0.8750000000    0.1250000000
   0.3750000000    0.3750000000    0.6250000000
   0.8750000000    0.3750000000    0.6250000000
   0.3750000000    0.8750000000    0.6250000000
   0.8750000000    0.8750000000    0.6250000000
   0.2500000000    0.8750000000    0.5000000000
   0.5000000000    0.1250000000    0.2500000000
   0.1250000000    0.6250000000    0.3750000000
   0.5000000000    0.5000000000    0.3750000000
   0.2500000000    0.0000000000    0.8750000000
   0.6250000000    0.1250000000    0.8750000000
   0.1250000000    0.5000000000    0.7500000000
   0.6250000000    0.6250000000    0.8750000000
   0.8750000000    0.1250000000    0.3750000000
   0.8750000000    0.6250000000    0.3750000000
   0.3750000000    0.1250000000    0.8750000000
   0.0000000000    0.1250000000    0.7500000000
   0.3750000000    0.6250000000    0.8750000000
   0.8750000000    0.6250000000    0.8750000000
   0.1250000000    0.3750000000    0.1250000000
   0.6250000000    0.3750000000    0.1250000000
   0.1250000000    0.8750000000    0.1250000000
   0.6250000000    0.8750000000    0.1250000000
   0.1250000000    0.3750000000    0.6250000000
   0.6250000000    0.3750000000    0.6250000000
   0.1250000000    0.8750000000    0.6250000000
   0.6250000000    0.8750000000    0.6250000000
   0.1250000000    0.3750000000    0.3750000000
   0.6250000000    0.3750000000    0.3750000000
   0.1250000000    0.8750000000    0.3750000000
   0.6250000000    0.8750000000    0.3750000000
   0.1250000000    0.3750000000    0.8750000000
   0.6250000000    0.3750000000    0.8750000000
   0.1250000000    0.8750000000    0.8750000000
   0.6250000000    0.8750000000    0.8750000000
   0.3750000000    0.0000000000    0.0000000000
   0.0000000000    0.1250000000    0.0000000000
   0.3750000000    0.6250000000    0.1250000000
   0.8750000000    0.6250000000    0.1250000000
   0.3750000000    0.1250000000    0.6250000000
   0.0000000000    0.0000000000    0.6250000000
   0.2500000000    0.6250000000    0.7500000000
   0.1250000000    0.2500000000    0.2500000000
   0.6250000000    0.2500000000    0.2500000000
   0.1250000000    0.7500000000    0.2500000000
   0.6250000000    0.7500000000    0.2500000000
   0.1250000000    0.2500000000    0.7500000000
   0.6250000000    0.2500000000    0.7500000000
   0.1250000000    0.7500000000    0.7500000000
   0.6250000000    0.7500000000    0.7500000000
   0.8750000000    0.0000000000    0.0000000000
   0.3750000000    0.5000000000    0.0000000000
   0.8750000000    0.5000000000    0.0000000000
   0.3750000000    0.0000000000    0.5000000000
   0.8750000000    0.0000000000    0.5000000000
   0.8750000000    0.5000000000    0.5000000000
   0.2500000000    0.1250000000    0.2500000000
   0.8750000000    0.0000000000    0.2500000000
   0.2500000000    0.6250000000    0.2500000000
   0.6250000000    0.6250000000    0.3750000000
   0.3750000000    0.0000000000    0.7500000000
   0.8750000000    0.0000000000    0.7500000000
   0.3750000000    0.5000000000    0.7500000000
   0.8750000000    0.5000000000    0.7500000000
   0.1250000000    0.2500000000    0.0000000000
   0.6250000000    0.2500000000    0.0000000000
   0.1250000000    0.6250000000    0.8750000000
   0.6250000000    0.7500000000    0.0000000000
   0.1250000000    0.2500000000    0.5000000000
   0.6250000000    0.2500000000    0.5000000000
   0.1250000000    0.7500000000    0.5000000000
   0.6250000000    0.7500000000    0.5000000000
   0.3750000000    0.2500000000    0.0000000000
   0.8750000000    0.2500000000    0.0000000000
   0.3750000000    0.7500000000    0.0000000000
   0.8750000000    0.7500000000    0.0000000000
   0.3750000000    0.2500000000    0.5000000000
   0.8750000000    0.2500000000    0.5000000000
   0.2500000000    0.7500000000    0.6250000000
   0.8750000000    0.7500000000    0.5000000000
   0.1250000000    0.0000000000    0.2500000000
   0.6250000000    0.0000000000    0.2500000000
   0.1250000000    0.5000000000    0.2500000000
   0.5000000000    0.6250000000    0.2500000000
   0.1250000000    0.0000000000    0.7500000000
   0.6250000000    0.0000000000    0.7500000000
   0.6250000000    0.5000000000    0.7500000000
   0.1250000000    0.0000000000    0.0000000000
   0.6250000000    0.0000000000    0.0000000000
   0.1250000000    0.5000000000    0.0000000000
   0.6250000000    0.5000000000    0.0000000000
   0.7500000000    0.0000000000    0.3750000000
   0.2500000000    0.5000000000    0.6250000000
   0.6250000000    0.5000000000    0.5000000000
   0.3750000000    0.1250000000    0.3750000000
   0.8750000000    0.2500000000    0.2500000000
   0.3750000000    0.7500000000    0.2500000000
   0.8750000000    0.7500000000    0.2500000000
   0.3750000000    0.2500000000    0.7500000000
   0.8750000000    0.2500000000    0.7500000000
   0.3750000000    0.7500000000    0.7500000000
   0.8750000000    0.7500000000    0.7500000000
   0.7500000000    0.1250000000    0.2500000000
   0.2500000000    0.7500000000    0.3750000000
   0.6250000000    0.5000000000    0.2500000000
   0.2500000000    0.1250000000    0.7500000000
   0.7500000000    0.1250000000    0.7500000000
   0.7500000000    0.6250000000    0.7500000000
   0.0000000000    0.3750000000    0.0000000000
   0.5000000000    0.3750000000    0.0000000000
   0.0000000000    0.8750000000    0.0000000000
   0.5000000000    0.8750000000    0.0000000000
   0.0000000000    0.3750000000    0.5000000000
   0.5000000000    0.3750000000    0.5000000000
   0.5000000000    0.8750000000    0.5000000000
   0.0000000000    0.3750000000    0.2500000000
   0.5000000000    0.3750000000    0.2500000000
   0.0000000000    0.8750000000    0.2500000000
   0.5000000000    0.8750000000    0.2500000000
   0.0000000000    0.3750000000    0.7500000000
   0.5000000000    0.3750000000    0.7500000000
   0.0000000000    0.8750000000    0.7500000000
   0.5000000000    0.8750000000    0.7500000000
   0.2500000000    0.1250000000    0.0000000000
   0.7500000000    0.1250000000    0.0000000000
   0.2500000000    0.6250000000    0.0000000000
   0.7500000000    0.6250000000    0.0000000000
   0.2500000000    0.1250000000    0.5000000000
   0.7500000000    0.1250000000    0.5000000000
   0.3750000000    0.6250000000    0.6250000000
   0.7500000000    0.6250000000    0.5000000000
   0.0000000000    0.0000000000    0.8750000000
   0.5000000000    0.1250000000    0.0000000000
   0.0000000000    0.6250000000    0.0000000000
   0.5000000000    0.6250000000    0.0000000000
   0.0000000000    0.1250000000    0.5000000000
   0.5000000000    0.1250000000    0.5000000000
   0.1250000000    0.5000000000    0.5000000000
   0.2500000000    0.6250000000    0.5000000000
   0.2500000000    0.3750000000    0.2500000000
   0.8750000000    0.5000000000    0.2500000000
   0.2500000000    0.0000000000    0.3750000000
   0.7500000000    0.8750000000    0.2500000000
   0.2500000000    0.3750000000    0.7500000000
   0.7500000000    0.3750000000    0.7500000000
   0.3750000000    0.8750000000    0.8750000000
   0.7500000000    0.8750000000    0.7500000000
   0.3750000000    0.3750000000    0.1250000000
   0.7500000000    0.3750000000    0.0000000000
   0.2500000000    0.8750000000    0.0000000000
   0.7500000000    0.8750000000    0.0000000000
   0.2500000000    0.3750000000    0.5000000000
   0.7500000000    0.3750000000    0.5000000000
   0.3750000000    0.7500000000    0.5000000000
   0.7500000000    0.8750000000    0.5000000000
   0.0000000000    0.1250000000    0.2500000000
   0.3750000000    0.0000000000    0.2500000000
   0.0000000000    0.6250000000    0.2500000000
   0.3750000000    0.5000000000    0.2500000000
   0.5000000000    0.1250000000    0.7500000000
   0.0000000000    0.6250000000    0.7500000000
   0.5000000000    0.6250000000    0.7500000000
   0.3750000000    0.2500000000    0.2500000000
   0.7500000000    0.2500000000    0.1250000000
   0.2500000000    0.7500000000    0.1250000000
   0.7500000000    0.7500000000    0.1250000000
   0.2500000000    0.2500000000    0.6250000000
   0.7500000000    0.2500000000    0.6250000000
   0.3750000000    0.6250000000    0.3750000000
   0.8750000000    0.6250000000    0.6250000000
   0.0000000000    0.0000000000    0.3750000000
   0.6250000000    0.0000000000    0.5000000000
   0.0000000000    0.5000000000    0.3750000000
   0.3750000000    0.5000000000    0.5000000000
   0.8750000000    0.1250000000    0.8750000000
   0.5000000000    0.0000000000    0.8750000000
   0.0000000000    0.5000000000    0.8750000000
   0.5000000000    0.5000000000    0.8750000000
   0.0000000000    0.0000000000    0.1250000000
   0.5000000000    0.0000000000    0.1250000000
   0.0000000000    0.5000000000    0.1250000000
   0.5000000000    0.5000000000    0.1250000000
   0.1250000000    0.0000000000    0.5000000000
   0.5000000000    0.0000000000    0.6250000000
   0.0000000000    0.5000000000    0.6250000000
   0.5000000000    0.5000000000    0.6250000000
   0.2500000000    0.2500000000    0.3750000000
   0.7500000000    0.2500000000    0.3750000000
   0.2500000000    0.8750000000    0.2500000000
   0.7500000000    0.7500000000    0.3750000000
   0.2500000000    0.2500000000    0.8750000000
   0.7500000000    0.2500000000    0.8750000000
   0.2500000000    0.7500000000    0.8750000000
   0.7500000000    0.7500000000    0.8750000000
   0.0000000000    0.2500000000    0.3750000000
   0.5000000000    0.2500000000    0.3750000000
   0.0000000000    0.7500000000    0.3750000000
   0.5000000000    0.7500000000    0.3750000000
   0.1250000000    0.1250000000    0.8750000000
   0.5000000000    0.2500000000    0.8750000000
   0.0000000000    0.7500000000    0.8750000000
   0.5000000000    0.7500000000    0.8750000000
   0.2500000000    0.0000000000    0.1250000000
   0.7500000000    0.0000000000    0.1250000000
   0.2500000000    0.5000000000    0.1250000000
   0.7500000000    0.5000000000    0.1250000000
   0.2500000000    0.0000000000    0.6250000000
   0.7500000000    0.0000000000    0.6250000000
   0.7500000000    0.5000000000    0.6250000000
   0.1250000000    0.1250000000    0.3750000000
   0.8750000000    0.8750000000    0.3750000000
   0.2500000000    0.5000000000    0.3750000000
   0.7500000000    0.5000000000    0.3750000000
   0.2500000000    0.8750000000    0.7500000000
   0.7500000000    0.0000000000    0.8750000000
   0.2500000000    0.5000000000    0.8750000000
   0.7500000000    0.5000000000    0.8750000000
   0.0000000000    0.2500000000    0.1250000000
   0.5000000000    0.2500000000    0.1250000000
   0.1250000000    0.7500000000    0.0000000000
   0.5000000000    0.7500000000    0.1250000000
   0.0000000000    0.2500000000    0.6250000000
   0.5000000000    0.2500000000    0.6250000000
   0.0000000000    0.7500000000    0.6250000000
   0.5000000000    0.7500000000    0.6250000000
Direct configuration=     8
   0.1250000000    0.1250000000    0.1250000000
   0.6250000000    0.1250000000    0.1250000000
   0.1250000000    0.6250000000    0.1250000000
   0.6250000000    0.6250000000    0.1250000000
   0.0000000000    0.0000000000    0.6250000000
   0.6250000000    0.1250000000    0.6250000000
   0.1250000000    0.6250000000    0.6250000000
   0.7500000000    0.7500000000    0.6250000000
   0.3750000000    0.3750000000    0.3750000000
   0.8750000000    0.3750000000    0.3750000000
   0.3750000000    0.8750000000    0.3750000000
   0.0000000000    0.8750000000    0.5000000000
   0.3750000000    0.3750000000    0.8750000000
   0.8750000000    0.3750000000    0.8750000000
   0.8750000000    0.8750000000    0.8750000000
   0.3750000000    0.1250000000    0.1250000000
   0.8750000000    0.3750000000    0.1250000000
   0.3750000000    0.8750000000    0.1250000000
   0.8750000000    0.8750000000    0.1250000000
   0.3750000000    0.3750000000    0.6250000000
   0.8750000000    0.3750000000    0.6250000000
   0.3750000000    0.8750000000    0.6250000000
   0.8750000000    0.8750000000    0.6250000000
   0.2500000000    0.8750000000    0.5000000000
   0.5000000000    0.1250000000    0.2500000000
   0.0000000000    0.6250000000    0.2500000000
   0.5000000000    0.5000000000    0.3750000000
   0.2500000000    0.0000000000    0.8750000000
   0.6250000000    0.1250000000    0.8750000000
   0.1250000000    0.5000000000    0.7500000000
   0.6250000000    0.6250000000    0.8750000000
   0.8750000000    0.1250000000    0.3750000000
   0.8750000000    0.5000000000    0.2500000000
   0.3750000000    0.1250000000    0.8750000000
   0.0000000000    0.1250000000    0.7500000000
   0.3750000000    0.6250000000    0.8750000000
   0.8750000000    0.6250000000    0.8750000000
   0.1250000000    0.3750000000    0.1250000000
   0.6250000000    0.3750000000    0.1250000000
   0.1250000000    0.8750000000    0.1250000000
   0.6250000000    0.8750000000    0.1250000000
   0.1250000000    0.3750000000    0.6250000000
   0.6250000000    0.3750000000    0.6250000000
   0.1250000000    0.8750000000    0.6250000000
   0.6250000000    0.8750000000    0.6250000000
   0.1250000000    0.3750000000    0.3750000000
   0.6250000000    0.3750000000    0.3750000000
   0.1250000000    0.8750000000    0.3750000000
   0.6250000000    0.8750000000    0.3750000000
   0.1250000000    0.3750000000    0.8750000000
   0.6250000000    0.3750000000    0.8750000000
   0.1250000000    0.8750000000    0.8750000000
   0.6250000000    0.8750000000    0.8750000000
   0.3750000000    0.0000000000    0.0000000000
   0.0000000000    0.1250000000    0.0000000000
   0.3750000000    0.6250000000    0.1250000000
   0.8750000000    0.6250000000    0.1250000000
   0.3750000000    0.1250000000    0.6250000000
   0.8750000000    0.1250000000    0.6250000000
   0.2500000000    0.6250000000    0.7500000000
   0.1250000000    0.2500000000    0.2500000000
   0.7500000000    0.1250000000    0.2500000000
   0.1250000000    0.7500000000    0.2500000000
   0.6250000000    0.7500000000    0.2500000000
   0.1250000000    0.2500000000    0.7500000000
   0.6250000000    0.2500000000    0.7500000000
   0.1250000000    0.7500000000    0.7500000000
   0.6250000000    0.7500000000    0.7500000000
   0.8750000000    0.0000000000    0.0000000000
   0.3750000000    0.5000000000    0.0000000000
   0.8750000000    0.5000000000    0.0000000000
   0.3750000000    0.0000000000    0.5000000000
   0.8750000000    0.0000000000    0.5000000000
   0.8750000000    0.5000000000    0.5000000000
   0.2500000000    0.1250000000    0.2500000000
   0.8750000000    0.0000000000    0.2500000000
   0.2500000000    0.6250000000    0.2500000000
   0.6250000000    0.6250000000    0.3750000000
   0.3750000000    0.0000000000    0.7500000000
   0.8750000000    0.0000000000    0.7500000000
   0.3750000000    0.5000000000    0.7500000000
   0.8750000000    0.5000000000    0.7500000000
   0.1250000000    0.2500000000    0.0000000000
   0.6250000000    0.2500000000    0.0000000000
   0.1250000000    0.6250000000    0.8750000000
   0.6250000000    0.7500000000    0.0000000000
   0.1250000000    0.2500000000    0.5000000000
   0.6250000000    0.2500000000    0.5000000000
   0.1250000000    0.7500000000    0.5000000000
   0.6250000000    0.7500000000    0.5000000000
   0.3750000000    0.2500000000    0.0000000000
   0.8750000000    0.2500000000    0.0000000000
   0.3750000000    0.7500000000    0.0000000000
   0.8750000000    0.7500000000    0.0000000000
   0.3750000000    0.2500000000    0.5000000000
   0.8750000000    0.2500000000    0.5000000000
   0.2500000000    0.7500000000    0.6250000000
   0.8750000000    0.7500000000    0.5000000000
   0.1250000000    0.0000000000    0.2500000000
   0.6250000000    0.0000000000    0.2500000000
   0.1250000000    0.5000000000    0.2500000000
   0.5000000000    0.6250000000    0.2500000000
   0.1250000000    0.0000000000    0.7500000000
   0.6250000000    0.0000000000    0.7500000000
   0.6250000000    0.5000000000    0.7500000000
   0.1250000000    0.0000000000    0.0000000000
   0.6250000000    0.0000000000    0.0000000000
   0.1250000000    0.5000000000    0.0000000000
   0.6250000000    0.5000000000    0.0000000000
   0.7500000000    0.0000000000    0.3750000000
   0.2500000000    0.5000000000    0.6250000000
   0.6250000000    0.5000000000    0.5000000000
   0.3750000000    0.1250000000    0.3750000000
   0.8750000000    0.2500000000    0.2500000000
   0.3750000000    0.7500000000    0.2500000000
   0.8750000000    0.7500000000    0.2500000000
   0.3750000000    0.2500000000    0.7500000000
   0.8750000000    0.2500000000    0.7500000000
   0.3750000000    0.7500000000    0.7500000000
   0.8750000000    0.7500000000    0.7500000000
   0.6250000000    0.1250000000    0.3750000000
   0.2500000000    0.7500000000    0.3750000000
   0.6250000000    0.5000000000    0.2500000000
   0.2500000000    0.1250000000    0.7500000000
   0.7500000000    0.1250000000    0.7500000000
   0.7500000000    0.6250000000    0.7500000000
   0.0000000000    0.3750000000    0.0000000000
   0.5000000000    0.3750000000    0.0000000000
   0.0000000000    0.8750000000    0.0000000000
   0.5000000000    0.8750000000    0.0000000000
   0.0000000000    0.3750000000    0.5000000000
   0.5000000000    0.3750000000    0.5000000000
   0.5000000000    0.8750000000    0.5000000000
   0.0000000000    0.3750000000    0.2500000000
   0.5000000000    0.3750000000    0.2500000000
   0.0000000000    0.8750000000    0.2500000000
   0.5000000000    0.8750000000    0.2500000000
   0.0000000000    0.3750000000    0.7500000000
   0.5000000000    0.3750000000    0.7500000000
   0.0000000000    0.8750000000    0.7500000000
   0.5000000000    0.8750000000    0.7500000000
   0.2500000000    0.1250000000    0.0000000000
   0.7500000000    0.1250000000    0.0000000000
   0.2500000000    0.6250000000    0.0000000000
   0.7500000000    0.6250000000    0.0000000000
   0.2500000000    0.1250000000    0.5000000000
   0.7500000000    0.1250000000    0.5000000000
   0.3750000000    0.6250000000    0.6250000000
   0.7500000000    0.6250000000    0.5000000000
   0.0000000000    0.0000000000    0.8750000000
   0.5000000000    0.1250000000    0.0000000000
   0.0000000000    0.6250000000    0.0000000000
   0.5000000000    0.6250000000    0.0000000000
   0.0000000000    0.1250000000    0.5000000000
   0.5000000000    0.1250000000    0.5000000000
   0.1250000000    0.5000000000    0.5000000000
   0.2500000000    0.6250000000    0.5000000000
   0.2500000000    0.3750000000    0.2500000000
   0.7500000000    0.3750000000    0.2500000000
   0.2500000000    0.0000000000    0.3750000000
   0.7500000000    0.8750000000    0.2500000000
   0.2500000000    0.3750000000    0.7500000000
   0.7500000000    0.3750000000    0.7500000000
   0.3750000000    0.8750000000    0.8750000000
   0.7500000000    0.8750000000    0.7500000000
   0.3750000000    0.3750000000    0.1250000000
   0.7500000000    0.3750000000    0.0000000000
   0.2500000000    0.8750000000    0.0000000000
   0.7500000000    0.8750000000    0.0000000000
   0.2500000000    0.3750000000    0.5000000000
   0.7500000000    0.3750000000    0.5000000000
   0.3750000000    0.7500000000    0.5000000000
   0.7500000000    0.8750000000    0.5000000000
   0.0000000000    0.1250000000    0.2500000000
   0.3750000000    0.0000000000    0.2500000000
   0.0000000000    0.7500000000    0.1250000000
   0.3750000000    0.5000000000    0.2500000000
   0.5000000000    0.1250000000    0.7500000000
   0.0000000000    0.6250000000    0.7500000000
   0.5000000000    0.6250000000    0.7500000000
   0.3750000000    0.2500000000    0.2500000000
   0.7500000000    0.2500000000    0.1250000000
   0.2500000000    0.7500000000    0.1250000000
   0.7500000000    0.7500000000    0.1250000000
   0.2500000000    0.2500000000    0.6250000000
   0.7500000000    0.2500000000    0.6250000000
   0.5000000000    0.6250000000    0.5000000000
   0.8750000000    0.6250000000    0.6250000000
   0.0000000000    0.0000000000    0.3750000000
   0.6250000000    0.0000000000    0.5000000000
   0.0000000000    0.5000000000    0.3750000000
   0.3750000000    0.5000000000    0.5000000000
   0.8750000000    0.1250000000    0.8750000000
   0.5000000000    0.0000000000    0.8750000000
   0.0000000000    0.5000000000    0.8750000000
   0.5000000000    0.5000000000    0.8750000000
   0.0000000000    0.0000000000    0.1250000000
   0.5000000000    0.0000000000    0.1250000000
   0.0000000000    0.5000000000    0.1250000000
   0.5000000000    0.5000000000    0.1250000000
   0.1250000000    0.0000000000    0.5000000000
   0.5000000000    0.0000000000    0.6250000000
   0.0000000000    0.5000000000    0.6250000000
   0.5000000000    0.5000000000    0.6250000000
   0.2500000000    0.2500000000    0.3750000000
   0.7500000000    0.2500000000    0.3750000000
   0.2500000000    0.8750000000    0.2500000000
   0.7500000000    0.7500000000    0.3750000000
   0.2500000000    0.2500000000    0.8750000000
   0.7500000000    0.2500000000    0.8750000000
   0.2500000000    0.7500000000    0.8750000000
   0.7500000000    0.7500000000    0.8750000000
   0.0000000000    0.2500000000    0.3750000000
   0.5000000000    0.2500000000    0.3750000000
   0.0000000000    0.7500000000    0.3750000000
   0.5000000000    0.7500000000    0.3750000000
   0.1250000000    0.1250000000    0.8750000000
   0.5000000000    0.2500000000    0.8750000000
   0.0000000000    0.7500000000    0.8750000000
   0.5000000000    0.7500000000    0.8750000000
   0.2500000000    0.0000000000    0.1250000000
   0.7500000000    0.0000000000    0.1250000000
   0.2500000000    0.5000000000    0.1250000000
   0.7500000000    0.5000000000    0.1250000000
   0.2500000000    0.0000000000    0.6250000000
   0.7500000000    0.0000000000    0.6250000000
   0.7500000000    0.5000000000    0.6250000000
   0.1250000000    0.1250000000    0.3750000000
   0.8750000000    0.8750000000    0.3750000000
   0.2500000000    0.5000000000    0.3750000000
   0.7500000000    0.5000000000    0.3750000000
   0.2500000000    0.8750000000    0.7500000000
   0.7500000000    0.0000000000    0.8750000000
   0.2500000000    0.5000000000    0.8750000000
   0.7500000000    0.5000000000    0.8750000000
   0.0000000000    0.2500000000    0.1250000000
   0.5000000000    0.2500000000    0.1250000000
   0.1250000000    0.7500000000    0.0000000000
   0.5000000000    0.7500000000    0.1250000000
   0.0000000000    0.2500000000    0.6250000000
   0.5000000000    0.2500000000    0.6250000000
   0.0000000000    0.7500000000    0.6250000000
   0.5000000000    0.7500000000    0.6250000000
Direct configuration=     9
   0.1250000000    0.1250000000    0.1250000000
   0.6250000000    0.1250000000    0.1250000000
   0.1250000000    0.6250000000    0.1250000000
   0.6250000000    0.6250000000    0.1250000000
   0.1250000000    0.1250000000    0.6250000000
   0.6250000000    0.1250000000    0.6250000000
   0.1250000000    0.6250000000    0.6250000000
   0.7500000000    0.7500000000    0.6250000000
   0.3750000000    0.3750000000    0.3750000000
   0.8750000000    0.3750000000    0.3750000000
   0.3750000000    0.8750000000    0.3750000000
   0.0000000000    0.8750000000    0.5000000000
   0.3750000000    0.3750000000    0.8750000000
   0.8750000000    0.3750000000    0.8750000000
   0.8750000000    0.8750000000    0.8750000000
   0.3750000000    0.1250000000    0.1250000000
   0.8750000000    0.3750000000    0.1250000000
   0.3750000000    0.8750000000    0.1250000000
   0.8750000000    0.8750000000    0.1250000000
   0.3750000000    0.3750000000    0.6250000000
   0.8750000000    0.3750000000    0.6250000000
   0.3750000000    0.8750000000    0.6250000000
   0.8750000000    0.8750000000    0.6250000000
   0.2500000000    0.8750000000    0.5000000000
   0.5000000000    0.1250000000    0.2500000000
   0.0000000000    0.6250000000    0.2500000000
   0.3750000000    0.6250000000    0.3750000000
   0.2500000000    0.0000000000    0.8750000000
   0.6250000000    0.1250000000    0.8750000000
   0.1250000000    0.5000000000    0.7500000000
   0.6250000000    0.6250000000    0.8750000000
   0.8750000000    0.1250000000    0.3750000000
   0.8750000000    0.5000000000    0.2500000000
   0.3750000000    0.1250000000    0.8750000000
   0.0000000000    0.1250000000    0.7500000000
   0.3750000000    0.6250000000    0.8750000000
   0.8750000000    0.6250000000    0.8750000000
   0.1250000000    0.3750000000    0.1250000000
   0.6250000000    0.3750000000    0.1250000000
   0.1250000000    0.8750000000    0.1250000000
   0.6250000000    0.8750000000    0.1250000000
   0.1250000000    0.3750000000    0.6250000000
   0.6250000000    0.3750000000    0.6250000000
   0.1250000000    0.8750000000    0.6250000000
   0.6250000000    0.8750000000    0.6250000000
   0.1250000000    0.3750000000    0.3750000000
   0.6250000000    0.3750000000    0.3750000000
   0.1250000000    0.8750000000    0.3750000000
   0.6250000000    0.8750000000    0.3750000000
   0.1250000000    0.3750000000    0.8750000000
   0.6250000000    0.3750000000    0.8750000000
   0.1250000000    0.8750000000    0.8750000000
   0.6250000000    0.8750000000    0.8750000000
   0.3750000000    0.0000000000    0.0000000000
   0.8750000000    0.1250000000    0.1250000000
   0.3750000000    0.6250000000    0.1250000000
   0.8750000000    0.6250000000    0.1250000000
   0.3750000000    0.1250000000    0.6250000000
   0.8750000000    0.1250000000    0.6250000000
   0.2500000000    0.6250000000    0.7500000000
   0.1250000000    0.2500000000    0.2500000000
   0.7500000000    0.1250000000    0.2500000000
   0.1250000000    0.7500000000    0.2500000000
   0.6250000000    0.7500000000    0.2500000000
   0.1250000000    0.2500000000    0.7500000000
   0.6250000000    0.2500000000    0.7500000000
   0.1250000000    0.7500000000    0.7500000000
   0.6250000000    0.7500000000    0.7500000000
   0.8750000000    0.0000000000    0.0000000000
   0.3750000000    0.5000000000    0.0000000000
   0.8750000000    0.5000000000    0.0000000000
   0.3750000000    0.0000000000    0.5000000000
   0.8750000000    0.0000000000    0.5000000000
   0.8750000000    0.5000000000    0.5000000000
   0.2500000000    0.1250000000    0.2500000000
   0.8750000000    0.0000000000    0.2500000000
   0.2500000000    0.6250000000    0.2500000000
   0.6250000000    0.6250000000    0.3750000000
   0.3750000000    0.0000000000    0.7500000000
   0.8750000000    0.0000000000    0.7500000000
   0.3750000000    0.5000000000    0.7500000000
   0.8750000000    0.5000000000    0.7500000000
   0.1250000000    0.2500000000    0.0000000000
   0.6250000000    0.2500000000    0.0000000000
   0.1250000000    0.6250000000    0.8750000000
   0.6250000000    0.7500000000    0.0000000000
   0.1250000000    0.2500000000    0.5000000000
   0.6250000000    0.2500000000    0.5000000000
   0.1250000000    0.7500000000    0.5000000000
   0.6250000000    0.7500000000    0.5000000000
   0.3750000000    0.2500000000    0.0000000000
   0.8750000000    0.2500000000    0.0000000000
   0.3750000000    0.7500000000    0.0000000000
   0.8750000000    0.7500000000    0.0000000000
   0.3750000000    0.2500000000    0.5000000000
   0.8750000000    0.2500000000    0.5000000000
   0.2500000000    0.7500000000    0.6250000000
   0.8750000000    0.7500000000    0.5000000000
   0.1250000000    0.0000000000    0.2500000000
   0.6250000000    0.0000000000    0.2500000000
   0.1250000000    0.5000000000    0.2500000000
   0.5000000000    0.6250000000    0.2500000000
   0.1250000000    0.0000000000    0.7500000000
   0.6250000000    0.0000000000    0.7500000000
   0.6250000000    0.5000000000    0.7500000000
   0.1250000000    0.0000000000    0.0000000000
   0.6250000000    0.0000000000    0.0000000000
   0.1250000000    0.5000000000    0.0000000000
   0.6250000000    0.5000000000    0.0000000000
   0.7500000000    0.0000000000    0.3750000000
   0.2500000000    0.5000000000    0.6250000000
   0.6250000000    0.5000000000    0.5000000000
   0.5000000000    0.0000000000    0.3750000000
   0.8750000000    0.2500000000    0.2500000000
   0.3750000000    0.7500000000    0.2500000000
   0.8750000000    0.7500000000    0.2500000000
   0.3750000000    0.2500000000    0.7500000000
   0.8750000000    0.2500000000    0.7500000000
   0.3750000000    0.7500000000    0.7500000000
   0.8750000000    0.7500000000    0.7500000000
   0.6250000000    0.1250000000    0.3750000000
   0.2500000000    0.7500000000    0.3750000000
   0.6250000000    0.5000000000    0.2500000000
   0.2500000000    0.1250000000    0.7500000000
   0.7500000000    0.1250000000    0.7500000000
   0.7500000000    0.6250000000    0.7500000000
   0.0000000000    0.3750000000    0.0000000000
   0.5000000000    0.3750000000    0.0000000000
   0.0000000000    0.8750000000    0.0000000000
   0.5000000000    0.8750000000    0.0000000000
   0.0000000000    0.3750000000    0.5000000000
   0.5000000000    0.5000000000    0.3750000000
   0.5000000000    0.8750000000    0.5000000000
   0.0000000000    0.3750000000    0.2500000000
   0.5000000000    0.3750000000    0.2500000000
   0.0000000000    0.8750000000    0.2500000000
   0.5000000000    0.8750000000    0.2500000000
   0.0000000000    0.3750000000    0.7500000000
   0.5000000000    0.3750000000    0.7500000000
   0.0000000000    0.8750000000    0.7500000000
   0.5000000000    0.8750000000    0.7500000000
   0.2500000000    0.1250000000    0.0000000000
   0.7500000000    0.1250000000    0.0000000000
   0.2500000000    0.6250000000    0.0000000000
   0.7500000000    0.6250000000    0.0000000000
   0.2500000000    0.1250000000    0.5000000000
   0.7500000000    0.1250000000    0.5000000000
   0.3750000000    0.6250000000    0.6250000000
   0.7500000000    0.6250000000    0.5000000000
   0.0000000000    0.0000000000    0.8750000000
   0.5000000000    0.1250000000    0.0000000000
   0.0000000000    0.6250000000    0.0000000000
   0.5000000000    0.6250000000    0.0000000000
   0.0000000000    0.1250000000    0.5000000000
   0.5000000000    0.1250000000    0.5000000000
   0.1250000000    0.5000000000    0.5000000000
   0.2500000000    0.6250000000    0.5000000000
   0.2500000000    0.3750000000    0.2500000000
   0.7500000000    0.3750000000    0.2500000000
   0.2500000000    0.0000000000    0.3750000000
   0.7500000000    0.8750000000    0.2500000000
   0.2500000000    0.3750000000    0.7500000000
   0.7500000000    0.3750000000    0.7500000000
   0.3750000000    0.8750000000    0.8750000000
   0.7500000000    0.8750000000    0.7500000000
   0.3750000000    0.3750000000    0.1250000000
   0.7500000000    0.3750000000    0.0000000000
   0.2500000000    0.8750000000    0.0000000000
   0.7500000000    0.8750000000    0.0000000000
   0.2500000000    0.3750000000    0.5000000000
   0.7500000000    0.3750000000    0.5000000000
   0.3750000000    0.7500000000    0.5000000000
   0.7500000000    0.8750000000    0.5000000000
   0.0000000000    0.1250000000    0.2500000000
   0.3750000000    0.0000000000    0.2500000000
   0.0000000000    0.7500000000    0.1250000000
   0.3750000000    0.5000000000    0.2500000000
   0.5000000000    0.1250000000    0.7500000000
   0.0000000000    0.6250000000    0.7500000000
   0.5000000000    0.6250000000    0.7500000000
   0.2500000000    0.2500000000    0.1250000000
   0.7500000000    0.2500000000    0.1250000000
   0.2500000000    0.7500000000    0.1250000000
   0.7500000000    0.7500000000    0.1250000000
   0.2500000000    0.2500000000    0.6250000000
   0.7500000000    0.2500000000    0.6250000000
   0.6250000000    0.6250000000    0.6250000000
   0.0000000000    0.6250000000    0.5000000000
   0.0000000000    0.0000000000    0.3750000000
   0.6250000000    0.0000000000    0.5000000000
   0.0000000000    0.5000000000    0.3750000000
   0.3750000000    0.5000000000    0.5000000000
   0.8750000000    0.1250000000    0.8750000000
   0.5000000000    0.0000000000    0.8750000000
   0.0000000000    0.5000000000    0.8750000000
   0.5000000000    0.5000000000    0.8750000000
   0.0000000000    0.0000000000    0.1250000000
   0.5000000000    0.0000000000    0.1250000000
   0.0000000000    0.5000000000    0.1250000000
   0.5000000000    0.5000000000    0.1250000000
   0.1250000000    0.0000000000    0.5000000000
   0.5000000000    0.0000000000    0.6250000000
   0.0000000000    0.5000000000    0.6250000000
   0.5000000000    0.5000000000    0.6250000000
   0.3750000000    0.1250000000    0.3750000000
   0.7500000000    0.2500000000    0.3750000000
   0.2500000000    0.8750000000    0.2500000000
   0.8750000000    0.6250000000    0.3750000000
   0.2500000000    0.2500000000    0.8750000000
   0.7500000000    0.2500000000    0.8750000000
   0.2500000000    0.7500000000    0.8750000000
   0.7500000000    0.7500000000    0.8750000000
   0.0000000000    0.2500000000    0.3750000000
   0.5000000000    0.2500000000    0.3750000000
   0.0000000000    0.7500000000    0.3750000000
   0.5000000000    0.7500000000    0.3750000000
   0.1250000000    0.1250000000    0.8750000000
   0.5000000000    0.2500000000    0.8750000000
   0.0000000000    0.7500000000    0.8750000000
   0.5000000000    0.7500000000    0.8750000000
   0.2500000000    0.0000000000    0.1250000000
   0.7500000000    0.0000000000    0.1250000000
   0.2500000000    0.5000000000    0.1250000000
   0.7500000000    0.5000000000    0.1250000000
   0.2500000000    0.0000000000    0.6250000000
   0.7500000000    0.0000000000    0.6250000000
   0.7500000000    0.5000000000    0.6250000000
   0.1250000000    0.1250000000    0.3750000000
   0.8750000000    0.8750000000    0.3750000000
   0.2500000000    0.5000000000    0.3750000000
   0.7500000000    0.5000000000    0.3750000000
   0.2500000000    0.8750000000    0.7500000000
   0.7500000000    0.0000000000    0.8750000000
   0.2500000000    0.5000000000    0.8750000000
   0.7500000000    0.5000000000    0.8750000000
   0.0000000000    0.2500000000    0.1250000000
   0.5000000000    0.2500000000    0.1250000000
   0.1250000000    0.7500000000    0.0000000000
   0.5000000000    0.7500000000    0.1250000000
   0.0000000000    0.2500000000    0.6250000000
   0.5000000000    0.2500000000    0.6250000000
   0.0000000000    0.7500000000    0.6250000000
   0.5000000000    0.7500000000    0.6250000000
Direct configuration=     10
   0.1250000000    0.1250000000    0.1250000000
   0.6250000000    0.1250000000    0.1250000000
   0.1250000000    0.6250000000    0.1250000000
   0.6250000000    0.6250000000    0.1250000000
   0.0000000000    0.0000000000    0.6250000000
   0.6250000000    0.1250000000    0.6250000000
   0.1250000000    0.6250000000    0.6250000000
   0.7500000000    0.7500000000    0.6250000000
   0.3750000000    0.3750000000    0.3750000000
   0.8750000000    0.3750000000    0.3750000000
   0.3750000000    0.8750000000    0.3750000000
   0.0000000000    0.8750000000    0.5000000000
   0.3750000000    0.3750000000    0.8750000000
   0.8750000000    0.3750000000    0.8750000000
   0.8750000000    0.8750000000    0.8750000000
   0.3750000000    0.1250000000    0.1250000000
   0.8750000000    0.3750000000    0.1250000000
   0.3750000000    0.8750000000    0.1250000000
   0.8750000000    0.8750000000    0.1250000000
   0.3750000000    0.3750000000    0.6250000000
   0.8750000000    0.3750000000    0.6250000000
   0.3750000000    0.8750000000    0.6250000000
   0.8750000000    0.8750000000    0.6250000000
   0.2500000000    0.8750000000    0.5000000000
   0.5000000000    0.1250000000    0.2500000000
   0.0000000000    0.6250000000    0.2500000000
   0.3750000000    0.6250000000    0.3750000000
   0.2500000000    0.0000000000    0.8750000000
   0.6250000000    0.1250000000    0.8750000000
   0.1250000000    0.5000000000    0.7500000000
   0.6250000000    0.6250000000    0.8750000000
   0.8750000000    0.1250000000    0.3750000000
   0.8750000000    0.5000000000    0.2500000000
   0.3750000000    0.1250000000    0.8750000000
   0.0000000000    0.1250000000    0.7500000000
   0.3750000000    0.6250000000    0.8750000000
   0.8750000000    0.6250000000    0.8750000000
   0.1250000000    0.3750000000    0.1250000000
   0.6250000000    0.3750000000    0.1250000000
   0.1250000000    0.8750000000    0.1250000000
   0.6250000000    0.8750000000    0.1250000000
   0.1250000000    0.3750000000    0.6250000000
   0.5000000000    0.3750000000    0.5000000000
   0.1250000000    0.8750000000    0.6250000000
   0.6250000000    0.8750000000    0.6250000000
   0.1250000000    0.3750000000    0.3750000000
   0.6250000000    0.3750000000    0.3750000000
   0.1250000000    0.8750000000    0.3750000000
   0.5000000000    0.7500000000    0.3750000000
   0.1250000000    0.3750000000    0.8750000000
   0.6250000000    0.3750000000    0.8750000000
   0.1250000000    0.8750000000    0.8750000000
   0.6250000000    0.8750000000    0.8750000000
   0.3750000000    0.0000000000    0.0000000000
   0.8750000000    0.1250000000    0.1250000000
   0.3750000000    0.6250000000    0.1250000000
   0.8750000000    0.6250000000    0.1250000000
   0.3750000000    0.1250000000    0.6250000000
   0.8750000000    0.1250000000    0.6250000000
   0.2500000000    0.6250000000    0.7500000000
   0.1250000000    0.2500000000    0.2500000000
   0.7500000000    0.1250000000    0.2500000000
   0.1250000000    0.7500000000    0.2500000000
   0.6250000000    0.7500000000    0.2500000000
   0.1250000000    0.2500000000    0.7500000000
   0.6250000000    0.2500000000    0.7500000000
   0.1250000000    0.7500000000    0.7500000000
   0.6250000000    0.7500000000    0.7500000000
   0.8750000000    0.0000000000    0.0000000000
   0.3750000000    0.5000000000    0.0000000000
   0.8750000000    0.5000000000    0.0000000000
   0.3750000000    0.0000000000    0.5000000000
   0.8750000000    0.0000000000    0.5000000000
   0.8750000000    0.5000000000    0.5000000000
   0.2500000000    0.1250000000    0.2500000000
   0.8750000000    0.0000000000    0.2500000000
   0.2500000000    0.6250000000    0.2500000000
   0.6250000000    0.6250000000    0.3750000000
   0.3750000000    0.0000000000    0.7500000000
   0.8750000000    0.0000000000    0.7500000000
   0.3750000000    0.5000000000    0.7500000000
   0.8750000000    0.6250000000    0.6250000000
   0.1250000000    0.2500000000    0.0000000000
   0.6250000000    0.2500000000    0.0000000000
   0.1250000000    0.6250000000    0.8750000000
   0.6250000000    0.7500000000    0.0000000000
   0.1250000000    0.2500000000    0.5000000000
   0.6250000000    0.2500000000    0.5000000000
   0.1250000000    0.7500000000    0.5000000000
   0.6250000000    0.8750000000    0.3750000000
   0.3750000000    0.2500000000    0.0000000000
   0.8750000000    0.2500000000    0.0000000000
   0.3750000000    0.7500000000    0.0000000000
   0.8750000000    0.7500000000    0.0000000000
   0.3750000000    0.2500000000    0.5000000000
   0.8750000000    0.2500000000    0.5000000000
   0.2500000000    0.7500000000    0.6250000000
   0.8750000000    0.7500000000    0.5000000000
   0.1250000000    0.0000000000    0.2500000000
   0.6250000000    0.0000000000    0.2500000000
   0.1250000000    0.5000000000    0.2500000000
   0.5000000000    0.6250000000    0.2500000000
   0.1250000000    0.0000000000    0.7500000000
   0.6250000000    0.0000000000    0.7500000000
   0.6250000000    0.5000000000    0.7500000000
   0.1250000000    0.0000000000    0.0000000000
   0.6250000000    0.0000000000    0.0000000000
   0.1250000000    0.5000000000    0.0000000000
   0.6250000000    0.5000000000    0.0000000000
   0.7500000000    0.0000000000    0.3750000000
   0.2500000000    0.5000000000    0.6250000000
   0.6250000000    0.5000000000    0.5000000000
   0.5000000000    0.0000000000    0.3750000000
   0.8750000000    0.2500000000    0.2500000000
   0.3750000000    0.7500000000    0.2500000000
   0.8750000000    0.7500000000    0.2500000000
   0.3750000000    0.2500000000    0.7500000000
   0.0000000000    0.2500000000    0.8750000000
   0.3750000000    0.7500000000    0.7500000000
   0.8750000000    0.7500000000    0.7500000000
   0.6250000000    0.1250000000    0.3750000000
   0.2500000000    0.7500000000    0.3750000000
   0.6250000000    0.5000000000    0.2500000000
   0.2500000000    0.1250000000    0.7500000000
   0.7500000000    0.1250000000    0.7500000000
   0.7500000000    0.6250000000    0.7500000000
   0.0000000000    0.3750000000    0.0000000000
   0.5000000000    0.3750000000    0.0000000000
   0.0000000000    0.8750000000    0.0000000000
   0.5000000000    0.8750000000    0.0000000000
   0.0000000000    0.3750000000    0.5000000000
   0.5000000000    0.5000000000    0.3750000000
   0.5000000000    0.8750000000    0.5000000000
   0.0000000000    0.3750000000    0.2500000000
   0.5000000000    0.3750000000    0.2500000000
   0.0000000000    0.8750000000    0.2500000000
   0.5000000000    0.8750000000    0.2500000000
   0.0000000000    0.3750000000    0.7500000000
   0.5000000000    0.3750000000    0.7500000000
   0.0000000000    0.8750000000    0.7500000000
   0.5000000000    0.8750000000    0.7500000000
   0.2500000000    0.1250000000    0.0000000000
   0.7500000000    0.1250000000    0.0000000000
   0.2500000000    0.6250000000    0.0000000000
   0.7500000000    0.6250000000    0.0000000000
   0.2500000000    0.1250000000    0.5000000000
   0.7500000000    0.1250000000    0.5000000000
   0.3750000000    0.6250000000    0.6250000000
   0.7500000000    0.6250000000    0.5000000000
   0.0000000000    0.0000000000    0.8750000000
   0.5000000000    0.1250000000    0.0000000000
   0.0000000000    0.6250000000    0.0000000000
   0.5000000000    0.6250000000    0.0000000000
   0.0000000000    0.1250000000    0.5000000000
   0.5000000000    0.1250000000    0.5000000000
   0.1250000000    0.5000000000    0.5000000000
   0.2500000000    0.6250000000    0.5000000000
   0.2500000000    0.3750000000    0.2500000000
   0.7500000000    0.3750000000    0.2500000000
   0.2500000000    0.0000000000    0.3750000000
   0.7500000000    0.8750000000    0.2500000000
   0.2500000000    0.3750000000    0.7500000000
   0.7500000000    0.3750000000    0.7500000000
   0.3750000000    0.8750000000    0.8750000000
   0.7500000000    0.8750000000    0.7500000000
   0.3750000000    0.3750000000    0.1250000000
   0.7500000000    0.3750000000    0.0000000000
   0.2500000000    0.8750000000    0.0000000000
   0.7500000000    0.8750000000    0.0000000000
   0.2500000000    0.3750000000    0.5000000000
   0.7500000000    0.3750000000    0.5000000000
   0.3750000000    0.7500000000    0.5000000000
   0.7500000000    0.8750000000    0.5000000000
   0.0000000000    0.1250000000    0.2500000000
   0.3750000000    0.0000000000    0.2500000000
   0.0000000000    0.7500000000    0.1250000000
   0.3750000000    0.5000000000    0.2500000000
   0.5000000000    0.1250000000    0.7500000000
   0.0000000000    0.6250000000    0.7500000000
   0.5000000000    0.6250000000    0.7500000000
   0.2500000000    0.2500000000    0.1250000000
   0.7500000000    0.2500000000    0.1250000000
   0.2500000000    0.7500000000    0.1250000000
   0.7500000000    0.7500000000    0.1250000000
   0.2500000000    0.2500000000    0.6250000000
   0.7500000000    0.2500000000    0.6250000000
   0.6250000000    0.6250000000    0.6250000000
   0.0000000000    0.6250000000    0.5000000000
   0.0000000000    0.0000000000    0.3750000000
   0.6250000000    0.0000000000    0.5000000000
   0.0000000000    0.5000000000    0.3750000000
   0.3750000000    0.5000000000    0.5000000000
   0.8750000000    0.1250000000    0.8750000000
   0.5000000000    0.0000000000    0.8750000000
   0.0000000000    0.5000000000    0.8750000000
   0.5000000000    0.5000000000    0.8750000000
   0.0000000000    0.0000000000    0.1250000000
   0.5000000000    0.0000000000    0.1250000000
   0.0000000000    0.5000000000    0.1250000000
   0.5000000000    0.5000000000    0.1250000000
   0.1250000000    0.0000000000    0.5000000000
   0.5000000000    0.0000000000    0.6250000000
   0.0000000000    0.5000000000    0.6250000000
   0.5000000000    0.5000000000    0.6250000000
   0.3750000000    0.1250000000    0.3750000000
   0.7500000000    0.2500000000    0.3750000000
   0.2500000000    0.8750000000    0.2500000000
   0.8750000000    0.6250000000    0.3750000000
   0.2500000000    0.2500000000    0.8750000000
   0.7500000000    0.2500000000    0.8750000000
   0.2500000000    0.7500000000    0.8750000000
   0.7500000000    0.7500000000    0.8750000000
   0.0000000000    0.2500000000    0.3750000000
   0.5000000000    0.2500000000    0.3750000000
   0.0000000000    0.7500000000    0.3750000000
   0.5000000000    0.6250000000    0.5000000000
   0.1250000000    0.1250000000    0.8750000000
   0.5000000000    0.2500000000    0.8750000000
   0.0000000000    0.7500000000    0.8750000000
   0.5000000000    0.7500000000    0.8750000000
   0.2500000000    0.0000000000    0.1250000000
   0.7500000000    0.0000000000    0.1250000000
   0.2500000000    0.5000000000    0.1250000000
   0.7500000000    0.5000000000    0.1250000000
   0.2500000000    0.0000000000    0.6250000000
   0.7500000000    0.0000000000    0.6250000000
   0.7500000000    0.5000000000    0.6250000000
   0.1250000000    0.1250000000    0.3750000000
   0.7500000000    0.7500000000    0.3750000000
   0.2500000000    0.5000000000    0.3750000000
   0.7500000000    0.6250000000    0.2500000000
   0.2500000000    0.8750000000    0.7500000000
   0.7500000000    0.0000000000    0.8750000000
   0.2500000000    0.3750000000    0.0000000000
   0.7500000000    0.5000000000    0.8750000000
   0.0000000000    0.2500000000    0.1250000000
   0.5000000000    0.2500000000    0.1250000000
   0.1250000000    0.7500000000    0.0000000000
   0.5000000000    0.7500000000    0.1250000000
   0.0000000000    0.2500000000    0.6250000000
   0.5000000000    0.2500000000    0.6250000000
   0.0000000000    0.7500000000    0.6250000000
   0.5000000000    0.7500000000    0.6250000000
Direct configuration=     11
   0.1250000000    0.1250000000    0.1250000000
   0.6250000000    0.1250000000    0.1250000000
   0.1250000000    0.6250000000    0.1250000000
   0.6250000000    0.6250000000    0.1250000000
   0.0000000000    0.0000000000    0.6250000000
   0.6250000000    0.1250000000    0.6250000000
   0.1250000000    0.6250000000    0.6250000000
   0.7500000000    0.7500000000    0.6250000000
   0.3750000000    0.3750000000    0.3750000000
   0.8750000000    0.3750000000    0.3750000000
   0.3750000000    0.8750000000    0.3750000000
   0.0000000000    0.8750000000    0.5000000000
   0.3750000000    0.3750000000    0.8750000000
   0.8750000000    0.3750000000    0.8750000000
   0.8750000000    0.8750000000    0.8750000000
   0.3750000000    0.1250000000    0.1250000000
   0.8750000000    0.3750000000    0.1250000000
   0.3750000000    0.8750000000    0.1250000000
   0.8750000000    0.8750000000    0.1250000000
   0.3750000000    0.3750000000    0.6250000000
   0.8750000000    0.3750000000    0.6250000000
   0.3750000000    0.8750000000    0.6250000000
   0.8750000000    0.0000000000    0.7500000000
   0.2500000000    0.8750000000    0.5000000000
   0.5000000000    0.1250000000    0.2500000000
   0.0000000000    0.6250000000    0.2500000000
   0.3750000000    0.6250000000    0.3750000000
   0.2500000000    0.0000000000    0.8750000000
   0.6250000000    0.1250000000    0.8750000000
   0.1250000000    0.5000000000    0.7500000000
   0.6250000000    0.6250000000    0.8750000000
   0.8750000000    0.1250000000    0.3750000000
   0.8750000000    0.5000000000    0.2500000000
   0.3750000000    0.1250000000    0.8750000000
   0.0000000000    0.1250000000    0.7500000000
   0.2500000000    0.5000000000    0.8750000000
   0.8750000000    0.6250000000    0.8750000000
   0.1250000000    0.3750000000    0.1250000000
   0.6250000000    0.3750000000    0.1250000000
   0.1250000000    0.8750000000    0.1250000000
   0.6250000000    0.8750000000    0.1250000000
   0.1250000000    0.3750000000    0.6250000000
   0.5000000000    0.3750000000    0.5000000000
   0.1250000000    0.8750000000    0.6250000000
   0.6250000000    0.8750000000    0.6250000000
   0.1250000000    0.3750000000    0.3750000000
   0.6250000000    0.3750000000    0.3750000000
   0.1250000000    0.8750000000    0.3750000000
   0.5000000000    0.7500000000    0.3750000000
   0.1250000000    0.3750000000    0.8750000000
   0.6250000000    0.3750000000    0.8750000000
   0.1250000000    0.8750000000    0.8750000000
   0.6250000000    0.8750000000    0.8750000000
   0.3750000000    0.0000000000    0.0000000000
   0.8750000000    0.1250000000    0.1250000000
   0.3750000000    0.6250000000    0.1250000000
   0.8750000000    0.6250000000    0.1250000000
   0.3750000000    0.1250000000    0.6250000000
   0.8750000000    0.1250000000    0.6250000000
   0.2500000000    0.6250000000    0.7500000000
   0.1250000000    0.2500000000    0.2500000000
   0.7500000000    0.1250000000    0.2500000000
   0.1250000000    0.7500000000    0.2500000000
   0.6250000000    0.7500000000    0.2500000000
   0.1250000000    0.2500000000    0.7500000000
   0.6250000000    0.2500000000    0.7500000000
   0.1250000000    0.7500000000    0.7500000000
   0.6250000000    0.7500000000    0.7500000000
   0.8750000000    0.0000000000    0.0000000000
   0.3750000000    0.5000000000    0.0000000000
   0.8750000000    0.5000000000    0.0000000000
   0.3750000000    0.0000000000    0.5000000000
   0.8750000000    0.0000000000    0.5000000000
   0.8750000000    0.5000000000    0.5000000000
   0.2500000000    0.1250000000    0.2500000000
   0.8750000000    0.0000000000    0.2500000000
   0.2500000000    0.6250000000    0.2500000000
   0.6250000000    0.6250000000    0.3750000000
   0.3750000000    0.0000000000    0.7500000000
   0.0000000000    0.0000000000    0.8750000000
   0.3750000000    0.5000000000    0.7500000000
   0.8750000000    0.5000000000    0.7500000000
   0.1250000000    0.2500000000    0.0000000000
   0.6250000000    0.2500000000    0.0000000000
   0.1250000000    0.6250000000    0.8750000000
   0.6250000000    0.7500000000    0.0000000000
   0.1250000000    0.2500000000    0.5000000000
   0.6250000000    0.2500000000    0.5000000000
   0.1250000000    0.6250000000    0.3750000000
   0.6250000000    0.8750000000    0.3750000000
   0.3750000000    0.2500000000    0.0000000000
   0.8750000000    0.2500000000    0.0000000000
   0.3750000000    0.7500000000    0.0000000000
   0.8750000000    0.7500000000    0.0000000000
   0.3750000000    0.2500000000    0.5000000000
   0.8750000000    0.2500000000    0.5000000000
   0.2500000000    0.7500000000    0.6250000000
   0.8750000000    0.7500000000    0.5000000000
   0.1250000000    0.0000000000    0.2500000000
   0.6250000000    0.0000000000    0.2500000000
   0.1250000000    0.5000000000    0.2500000000
   0.5000000000    0.6250000000    0.2500000000
   0.1250000000    0.0000000000    0.7500000000
   0.6250000000    0.0000000000    0.7500000000
   0.6250000000    0.5000000000    0.7500000000
   0.1250000000    0.0000000000    0.0000000000
   0.6250000000    0.0000000000    0.0000000000
   0.1250000000    0.5000000000    0.0000000000
   0.6250000000    0.5000000000    0.0000000000
   0.7500000000    0.0000000000    0.3750000000
   0.2500000000    0.5000000000    0.6250000000
   0.6250000000    0.5000000000    0.5000000000
   0.5000000000    0.0000000000    0.3750000000
   0.8750000000    0.2500000000    0.2500000000
   0.3750000000    0.7500000000    0.2500000000
   0.8750000000    0.7500000000    0.2500000000
   0.3750000000    0.2500000000    0.7500000000
   0.0000000000    0.2500000000    0.8750000000
   0.3750000000    0.7500000000    0.7500000000
   0.8750000000    0.7500000000    0.7500000000
   0.6250000000    0.1250000000    0.3750000000
   0.2500000000    0.7500000000    0.3750000000
   0.6250000000    0.5000000000    0.2500000000
   0.2500000000    0.1250000000    0.7500000000
   0.7500000000    0.1250000000    0.7500000000
   0.7500000000    0.6250000000    0.7500000000
   0.0000000000    0.3750000000    0.0000000000
   0.5000000000    0.3750000000    0.0000000000
   0.0000000000    0.8750000000    0.0000000000
   0.5000000000    0.8750000000    0.0000000000
   0.0000000000    0.3750000000    0.5000000000
   0.5000000000    0.5000000000    0.3750000000
   0.6250000000    0.7500000000    0.5000000000
   0.0000000000    0.3750000000    0.2500000000
   0.5000000000    0.3750000000    0.2500000000
   0.0000000000    0.8750000000    0.2500000000
   0.5000000000    0.8750000000    0.2500000000
   0.0000000000    0.3750000000    0.7500000000
   0.5000000000    0.3750000000    0.7500000000
   0.0000000000    0.8750000000    0.7500000000
   0.5000000000    0.8750000000    0.7500000000
   0.2500000000    0.1250000000    0.0000000000
   0.7500000000    0.1250000000    0.0000000000
   0.2500000000    0.6250000000    0.0000000000
   0.7500000000    0.6250000000    0.0000000000
   0.2500000000    0.1250000000    0.5000000000
   0.7500000000    0.1250000000    0.5000000000
   0.3750000000    0.6250000000    0.6250000000
   0.7500000000    0.6250000000    0.5000000000
   0.0000000000    0.1250000000    0.0000000000
   0.5000000000    0.1250000000    0.0000000000
   0.0000000000    0.6250000000    0.0000000000
   0.5000000000    0.6250000000    0.0000000000
   0.0000000000    0.1250000000    0.5000000000
   0.5000000000    0.1250000000    0.5000000000
   0.1250000000    0.5000000000    0.5000000000
   0.2500000000    0.6250000000    0.5000000000
   0.2500000000    0.3750000000    0.2500000000
   0.7500000000    0.5000000000    0.3750000000
   0.2500000000    0.0000000000    0.3750000000
   0.7500000000    0.8750000000    0.2500000000
   0.2500000000    0.3750000000    0.7500000000
   0.7500000000    0.3750000000    0.7500000000
   0.3750000000    0.8750000000    0.8750000000
   0.7500000000    0.8750000000    0.7500000000
   0.3750000000    0.3750000000    0.1250000000
   0.7500000000    0.3750000000    0.0000000000
   0.2500000000    0.8750000000    0.0000000000
   0.7500000000    0.8750000000    0.0000000000
   0.2500000000    0.3750000000    0.5000000000
   0.7500000000    0.3750000000    0.5000000000
   0.3750000000    0.7500000000    0.5000000000
   0.7500000000    0.8750000000    0.5000000000
   0.0000000000    0.1250000000    0.2500000000
   0.3750000000    0.0000000000    0.2500000000
   0.0000000000    0.7500000000    0.1250000000
   0.3750000000    0.5000000000    0.2500000000
   0.5000000000    0.1250000000    0.7500000000
   0.0000000000    0.6250000000    0.7500000000
   0.5000000000    0.6250000000    0.7500000000
   0.2500000000    0.2500000000    0.1250000000
   0.7500000000    0.2500000000    0.1250000000
   0.2500000000    0.7500000000    0.1250000000
   0.7500000000    0.7500000000    0.1250000000
   0.2500000000    0.2500000000    0.6250000000
   0.7500000000    0.2500000000    0.6250000000
   0.6250000000    0.6250000000    0.6250000000
   0.0000000000    0.6250000000    0.5000000000
   0.0000000000    0.0000000000    0.3750000000
   0.6250000000    0.0000000000    0.5000000000
   0.0000000000    0.5000000000    0.3750000000
   0.3750000000    0.5000000000    0.5000000000
   0.8750000000    0.1250000000    0.8750000000
   0.5000000000    0.0000000000    0.8750000000
   0.0000000000    0.5000000000    0.8750000000
   0.5000000000    0.5000000000    0.8750000000
   0.0000000000    0.0000000000    0.1250000000
   0.5000000000    0.0000000000    0.1250000000
   0.0000000000    0.5000000000    0.1250000000
   0.5000000000    0.5000000000    0.1250000000
   0.1250000000    0.0000000000    0.5000000000
   0.5000000000    0.0000000000    0.6250000000
   0.0000000000    0.5000000000    0.6250000000
   0.5000000000    0.5000000000    0.6250000000
   0.3750000000    0.1250000000    0.3750000000
   0.7500000000    0.2500000000    0.3750000000
   0.2500000000    0.8750000000    0.2500000000
   0.8750000000    0.6250000000    0.3750000000
   0.2500000000    0.2500000000    0.8750000000
   0.7500000000    0.2500000000    0.8750000000
   0.2500000000    0.7500000000    0.8750000000
   0.7500000000    0.7500000000    0.8750000000
   0.0000000000    0.2500000000    0.3750000000
   0.6250000000    0.2500000000    0.2500000000
   0.0000000000    0.7500000000    0.3750000000
   0.5000000000    0.6250000000    0.5000000000
   0.1250000000    0.1250000000    0.8750000000
   0.5000000000    0.2500000000    0.8750000000
   0.0000000000    0.7500000000    0.8750000000
   0.5000000000    0.7500000000    0.8750000000
   0.2500000000    0.0000000000    0.1250000000
   0.7500000000    0.0000000000    0.1250000000
   0.2500000000    0.5000000000    0.1250000000
   0.7500000000    0.5000000000    0.1250000000
   0.2500000000    0.0000000000    0.6250000000
   0.7500000000    0.0000000000    0.6250000000
   0.7500000000    0.5000000000    0.6250000000
   0.1250000000    0.1250000000    0.3750000000
   0.7500000000    0.7500000000    0.3750000000
   0.2500000000    0.5000000000    0.3750000000
   0.7500000000    0.6250000000    0.2500000000
   0.2500000000    0.8750000000    0.7500000000
   0.7500000000    0.0000000000    0.8750000000
   0.2500000000    0.3750000000    0.0000000000
   0.7500000000    0.5000000000    0.8750000000
   0.0000000000    0.2500000000    0.1250000000
   0.5000000000    0.2500000000    0.1250000000
   0.1250000000    0.7500000000    0.0000000000
   0.5000000000    0.7500000000    0.1250000000
   0.1250000000    0.1250000000    0.6250000000
   0.5000000000    0.2500000000    0.6250000000
   0.0000000000    0.7500000000    0.6250000000
   0.5000000000    0.7500000000    0.6250000000
